Generated using phonoLAMMPS             
   1.00000000000000     
     3.9640000000000000    0.0000000000000000    0.0000000000000000
     0.0000000000000000    3.9420000000000002    0.0000000000000000
     0.0000000000000000    0.0000000000000000    4.0243020963400831
   Pb   Ti   O 
     1     1     3
Direct
  0.0000000000000000  0.0000000000000000  0.0939349986093801
  0.5000000000000000  0.5000000000000000  0.5531476309087772
  0.5000000000000000  0.5000000000000000 -0.0025594390551252
  0.5000000000000000  0.0000000000000000  0.4871898634843129
  0.0000000000000000  0.5000000000000000  0.4882869460526528
 
  0.00000000E+00  0.00000000E+00  0.00000000E+00
  0.00000000E+00  0.00000000E+00  0.00000000E+00
  0.00000000E+00  0.00000000E+00  0.00000000E+00
  0.00000000E+00  0.00000000E+00  0.00000000E+00
  0.00000000E+00  0.00000000E+00  0.00000000E+00
