Generated using phonoLAMMPS             
   1.00000000000000     
     3.9460000000000002    0.0000000000000000    0.0000000000000000
     0.0000000000000000    3.9440000000000000    0.0000000000000000
     0.0000000000000000    0.0000000000000000    4.0351129931990659
   Pb   Ti   O 
     1     1     3
Direct
  0.0000000000000000  0.0000000000000000  0.0939896880519523
  0.5000000000000000  0.5000000000000000  0.5539741260335016
  0.5000000000000000  0.5000000000000000 -0.0029800328615506
  0.5000000000000000  0.0000000000000000  0.4874569722406335
  0.0000000000000000  0.5000000000000000  0.4875592465354601
 
  0.00000000E+00  0.00000000E+00  0.00000000E+00
  0.00000000E+00  0.00000000E+00  0.00000000E+00
  0.00000000E+00  0.00000000E+00  0.00000000E+00
  0.00000000E+00  0.00000000E+00  0.00000000E+00
  0.00000000E+00  0.00000000E+00  0.00000000E+00
