Generated using phonoLAMMPS             
   1.00000000000000     
     3.9720000000000000    0.0000000000000000    0.0000000000000000
     0.0000000000000000    3.9600000000000000    0.0000000000000000
     0.0000000000000000    0.0000000000000000    3.9070534522439933
   Pb   Ti   O 
     1     1     3
Direct
  0.0798374132607352  0.0000000000000000  0.0211558736502171
  0.5458641957628402  0.5000000000000000  0.5206879730563729
  0.4861511230255858  0.5000000000000000  0.0195537870363833
  0.4888033400008146  0.0000000000000000  0.5193261783563010
 -0.0006560720499718  0.5000000000000000  0.5192761879006997
 
  0.00000000E+00  0.00000000E+00  0.00000000E+00
  0.00000000E+00  0.00000000E+00  0.00000000E+00
  0.00000000E+00  0.00000000E+00  0.00000000E+00
  0.00000000E+00  0.00000000E+00  0.00000000E+00
  0.00000000E+00  0.00000000E+00  0.00000000E+00
