Generated using phonoLAMMPS             
   1.00000000000000     
     3.9600000000000000    0.0000000000000000    0.0000000000000000
     0.0000000000000000    3.9460000000000002    0.0000000000000000
     0.0000000000000000    0.0000000000000000    3.9130086678408049
   Pb   Ti   O 
     1     1     3
Direct
  0.0656109520678274  0.0515102131432905  0.0000000000000000
  0.5421049078649821  0.5371564425902420  0.5000000000000000
  0.4938934259182443  0.5013232552934340  0.0000000000000000
  0.4945812663895220  0.0082448486541980  0.5000000000000000
  0.0038094477594324  0.5017652403188381  0.5000000000000000
 
  0.00000000E+00  0.00000000E+00  0.00000000E+00
  0.00000000E+00  0.00000000E+00  0.00000000E+00
  0.00000000E+00  0.00000000E+00  0.00000000E+00
  0.00000000E+00  0.00000000E+00  0.00000000E+00
  0.00000000E+00  0.00000000E+00  0.00000000E+00
