Generated using phonoLAMMPS             
   1.00000000000000     
     3.9540000000000002    0.0000000000000000    0.0000000000000000
     0.0000000000000000    3.9500000000000002    0.0000000000000000
     0.0000000000000000    0.0000000000000000    4.0259278557939790
   Pb   Ti   O 
     1     1     3
Direct
  0.0000000000000000  0.0000000000000000  0.0940181817292733
  0.5000000000000000  0.5000000000000000  0.5532753595721637
  0.5000000000000000  0.5000000000000000 -0.0026473049844452
  0.5000000000000000  0.0000000000000000  0.4875769102871425
  0.0000000000000000  0.5000000000000000  0.4877768533958642
 
  0.00000000E+00  0.00000000E+00  0.00000000E+00
  0.00000000E+00  0.00000000E+00  0.00000000E+00
  0.00000000E+00  0.00000000E+00  0.00000000E+00
  0.00000000E+00  0.00000000E+00  0.00000000E+00
  0.00000000E+00  0.00000000E+00  0.00000000E+00
