Generated using phonoLAMMPS             
   1.00000000000000     
     3.9460000000000002    0.0000000000000000    0.0000000000000000
     0.0000000000000000    3.9420000000000002    0.0000000000000000
     0.0000000000000000    0.0000000000000000    4.0371760940950638
   Pb   Ti   O 
     1     1     3
Direct
  0.0204765415810571  0.0000000000000000  0.0901327613455629
  0.5203847569173226  0.5000000000000000  0.5501296960829566
  0.5197519375444560  0.5000000000000000 -0.0071144970225917
  0.5196351008321897  0.0000000000000000  0.4833098768511430
  0.0197516631249014  0.5000000000000000  0.4835421627429661
 
  0.00000000E+00  0.00000000E+00  0.00000000E+00
  0.00000000E+00  0.00000000E+00  0.00000000E+00
  0.00000000E+00  0.00000000E+00  0.00000000E+00
  0.00000000E+00  0.00000000E+00  0.00000000E+00
  0.00000000E+00  0.00000000E+00  0.00000000E+00
