Generated using phonoLAMMPS             
   1.00000000000000     
     3.9620000000000002    0.0000000000000000    0.0000000000000000
     0.0000000000000000    3.9420000000000002    0.0000000000000000
     0.0000000000000000    0.0000000000000000    3.9142310636882751
   Pb   Ti   O 
     1     1     3
Direct
  0.0683433265548214  0.0476219729425130  0.0000000000000000
  0.5429316797419309  0.5356109179151022  0.5000000000000000
  0.4925261602504741  0.5034332137527582  0.0000000000000000
  0.4931950720270505  0.0095187961448974  0.5000000000000000
  0.0030037614257252  0.5038150992447291  0.5000000000000000
 
  0.00000000E+00  0.00000000E+00  0.00000000E+00
  0.00000000E+00  0.00000000E+00  0.00000000E+00
  0.00000000E+00  0.00000000E+00  0.00000000E+00
  0.00000000E+00  0.00000000E+00  0.00000000E+00
  0.00000000E+00  0.00000000E+00  0.00000000E+00
