Generated using phonoLAMMPS             
   1.00000000000000     
     3.9700000000000002    0.0000000000000000    0.0000000000000000
     0.0000000000000000    3.9500000000000002    0.0000000000000000
     0.0000000000000000    0.0000000000000000    3.9082603592069249
   Pb   Ti   O 
     1     1     3
Direct
  0.0687467995368885  0.0491564195129695  0.0000000000000000
  0.5433696028950138  0.5365032991633149  0.5000000000000000
  0.4920720276909651  0.5024027865485743  0.0000000000000000
  0.4933007064551166  0.0087593538096689  0.5000000000000000
  0.0025108634220168  0.5031781409654786  0.5000000000000000
 
  0.00000000E+00  0.00000000E+00  0.00000000E+00
  0.00000000E+00  0.00000000E+00  0.00000000E+00
  0.00000000E+00  0.00000000E+00  0.00000000E+00
  0.00000000E+00  0.00000000E+00  0.00000000E+00
  0.00000000E+00  0.00000000E+00  0.00000000E+00
