Generated using phonoLAMMPS             
   1.00000000000000     
     3.9580000000000002    0.0000000000000000    0.0000000000000000
     0.0000000000000000    3.9340000000000002    0.0000000000000000
     0.0000000000000000    0.0000000000000000    3.9523233947506986
   Pb   Ti   O 
     1     1     3
Direct
  0.0729130968524094  0.0558160143032670  0.0388343693524345
  0.5532910717289145  0.5457626339579315  0.5216878872159919
  0.5116039265157828  0.5207971700703244  0.9905857855640873
  0.5114451678884785  0.0252759440214165  0.4835452806009831
  0.0192123714025154  0.5208138720351763  0.4837211845563380
 
  0.00000000E+00  0.00000000E+00  0.00000000E+00
  0.00000000E+00  0.00000000E+00  0.00000000E+00
  0.00000000E+00  0.00000000E+00  0.00000000E+00
  0.00000000E+00  0.00000000E+00  0.00000000E+00
  0.00000000E+00  0.00000000E+00  0.00000000E+00
