Generated using phonoLAMMPS             
   1.00000000000000     
     3.9700000000000002    0.0000000000000000    0.0000000000000000
     0.0000000000000000    3.9620000000000002    0.0000000000000000
     0.0000000000000000    0.0000000000000000    3.9069613490834554
   Pb   Ti   O 
     1     1     3
Direct
  0.0797362276495162  0.0000000000000000  0.0210439792029419
  0.5457062609389971  0.5000000000000000  0.5205988853215491
  0.4861855644528744  0.5000000000000000  0.0196063769037674
  0.4889199322020581  0.0000000000000000  0.5194046387701788
 -0.0005479852434268  0.5000000000000000  0.5193461198015724
 
  0.00000000E+00  0.00000000E+00  0.00000000E+00
  0.00000000E+00  0.00000000E+00  0.00000000E+00
  0.00000000E+00  0.00000000E+00  0.00000000E+00
  0.00000000E+00  0.00000000E+00  0.00000000E+00
  0.00000000E+00  0.00000000E+00  0.00000000E+00
