Generated using phonoLAMMPS             
   1.00000000000000     
     3.9660000000000002    0.0000000000000000    0.0000000000000000
     0.0000000000000000    3.9359999999999999    0.0000000000000000
     0.0000000000000000    0.0000000000000000    3.9160248497449337
   Pb   Ti   O 
     1     1     3
Direct
  0.0719081303129727  0.0419828418128652  0.0000000000000000
  0.5440540997694576  0.5331136163980607  0.5000000000000000
  0.4907816891633898  0.5065798426556569  0.0000000000000000
  0.4913606243192412  0.0114442191210573  0.5000000000000000
  0.0018954564349517  0.5068794800122806  0.5000000000000000
 
  0.00000000E+00  0.00000000E+00  0.00000000E+00
  0.00000000E+00  0.00000000E+00  0.00000000E+00
  0.00000000E+00  0.00000000E+00  0.00000000E+00
  0.00000000E+00  0.00000000E+00  0.00000000E+00
  0.00000000E+00  0.00000000E+00  0.00000000E+00
