Generated using phonoLAMMPS             
   1.00000000000000     
     3.9720000000000000    0.0000000000000000    0.0000000000000000
     0.0000000000000000    3.9380000000000002    0.0000000000000000
     0.0000000000000000    0.0000000000000000    3.9132943992345988
   Pb   Ti   O 
     1     1     3
Direct
  0.0733261414326995  0.0407262903732541  0.0000000000000000
  0.5446942494072201  0.5326325146728904  0.5000000000000000
  0.4899319646879796  0.5071897845746712  0.0000000000000000
  0.4908070219178297  0.0117771100350715  0.5000000000000000
  0.0012406225542729  0.5076743003441180  0.5000000000000000
 
  0.00000000E+00  0.00000000E+00  0.00000000E+00
  0.00000000E+00  0.00000000E+00  0.00000000E+00
  0.00000000E+00  0.00000000E+00  0.00000000E+00
  0.00000000E+00  0.00000000E+00  0.00000000E+00
  0.00000000E+00  0.00000000E+00  0.00000000E+00
