Generated using phonoLAMMPS             
   1.00000000000000     
     3.9660000000000002    0.0000000000000000    0.0000000000000000
     0.0000000000000000    3.9640000000000000    0.0000000000000000
     0.0000000000000000    0.0000000000000000    3.9826210379991944
   Pb   Ti   O 
     1     1     3
Direct
  0.0416438643845114  0.0000000000000000  0.0810570721466467
  0.5338642931388824  0.5000000000000000  0.5450051085341051
  0.5067819461492454  0.5000000000000000  0.9979714854082441
  0.5076233354085916  0.0000000000000000  0.4879852764311117
  0.0100865609187738  0.5000000000000000  0.4879810574799587
 
  0.00000000E+00  0.00000000E+00  0.00000000E+00
  0.00000000E+00  0.00000000E+00  0.00000000E+00
  0.00000000E+00  0.00000000E+00  0.00000000E+00
  0.00000000E+00  0.00000000E+00  0.00000000E+00
  0.00000000E+00  0.00000000E+00  0.00000000E+00
