Generated using phonoLAMMPS             
   1.00000000000000     
     3.9660000000000002    0.0000000000000000    0.0000000000000000
     0.0000000000000000    3.9460000000000002    0.0000000000000000
     0.0000000000000000    0.0000000000000000    3.9118472991562907
   Pb   Ti   O 
     1     1     3
Direct
  0.0825537088721806  0.0614414943098567  0.0078637842452935
  0.5568921713143171  0.5495206726176370  0.5060745346535956
  0.5058359958112428  0.5169791733760115  1.0020993739757191
  0.5068174187587888  0.0230191414282833  0.5011814316923107
  0.0163663396315621  0.5175051526563523  0.5011553827228830
 
  0.00000000E+00  0.00000000E+00  0.00000000E+00
  0.00000000E+00  0.00000000E+00  0.00000000E+00
  0.00000000E+00  0.00000000E+00  0.00000000E+00
  0.00000000E+00  0.00000000E+00  0.00000000E+00
  0.00000000E+00  0.00000000E+00  0.00000000E+00
