Generated using phonoLAMMPS             
   1.00000000000000     
     3.9700000000000002    0.0000000000000000    0.0000000000000000
     0.0000000000000000    3.9520000000000000    0.0000000000000000
     0.0000000000000000    0.0000000000000000    3.9837186130738389
   Pb   Ti   O 
     1     1     3
Direct
  0.0440480393715043  0.0000000000000000  0.0794097927488202
  0.5350829685029429  0.5000000000000000  0.5449070863137256
  0.5055769294320772  0.5000000000000000  0.9984533281276216
  0.5061273004496026  0.0000000000000000  0.4883160909428935
  0.0091647622436948  0.5000000000000000  0.4889137018673089
 
  0.00000000E+00  0.00000000E+00  0.00000000E+00
  0.00000000E+00  0.00000000E+00  0.00000000E+00
  0.00000000E+00  0.00000000E+00  0.00000000E+00
  0.00000000E+00  0.00000000E+00  0.00000000E+00
  0.00000000E+00  0.00000000E+00  0.00000000E+00
