Generated using phonoLAMMPS             
   1.00000000000000     
     3.9420000000000002    0.0000000000000000    0.0000000000000000
     0.0000000000000000    3.9359999999999999    0.0000000000000000
     0.0000000000000000    0.0000000000000000    4.0458934018207300
   Pb   Ti   O 
     1     1     3
Direct
  0.0000000000000000  0.0000000000000000  0.0945067527978051
  0.5000000000000000  0.5000000000000000  0.5547809256238297
  0.5000000000000000  0.5000000000000000 -0.0035820908841869
  0.5000000000000000  0.0000000000000000  0.4870038734077137
  0.0000000000000000  0.5000000000000000  0.4872905390548351
 
  0.00000000E+00  0.00000000E+00  0.00000000E+00
  0.00000000E+00  0.00000000E+00  0.00000000E+00
  0.00000000E+00  0.00000000E+00  0.00000000E+00
  0.00000000E+00  0.00000000E+00  0.00000000E+00
  0.00000000E+00  0.00000000E+00  0.00000000E+00
