Generated using phonoLAMMPS             
   1.00000000000000     
     3.9640000000000000    0.0000000000000000    0.0000000000000000
     0.0000000000000000    3.9540000000000002    0.0000000000000000
     0.0000000000000000    0.0000000000000000    3.9845848950671141
   Pb   Ti   O 
     1     1     3
Direct
  0.0442768276703414  0.0000000000000000  0.0788809011996552
  0.5346890762699525  0.5000000000000000  0.5449513343375381
  0.5055177979538400  0.5000000000000000  0.9985533471638558
  0.5061123713537601  0.0000000000000000  0.4887334311614969
  0.0094039267520918  0.5000000000000000  0.4888809861375809
 
  0.00000000E+00  0.00000000E+00  0.00000000E+00
  0.00000000E+00  0.00000000E+00  0.00000000E+00
  0.00000000E+00  0.00000000E+00  0.00000000E+00
  0.00000000E+00  0.00000000E+00  0.00000000E+00
  0.00000000E+00  0.00000000E+00  0.00000000E+00
