Generated using phonoLAMMPS             
   1.00000000000000     
     3.9520000000000000    0.0000000000000000    0.0000000000000000
     0.0000000000000000    3.9399999999999999    0.0000000000000000
     0.0000000000000000    0.0000000000000000    3.9567747172524821
   Pb   Ti   O 
     1     1     3
Direct
  0.0674087120585557  0.0602977419613326  0.0418687499311770
  0.5511308797181258  0.5477902245044459  0.5227525540950402
  0.5145031809148223  0.5183518651422597  0.9895341439859853
  0.5144007236678212  0.0236488225866580  0.4820274802683442
  0.0210221380287924  0.5183769801934095  0.4821915790092807
 
  0.00000000E+00  0.00000000E+00  0.00000000E+00
  0.00000000E+00  0.00000000E+00  0.00000000E+00
  0.00000000E+00  0.00000000E+00  0.00000000E+00
  0.00000000E+00  0.00000000E+00  0.00000000E+00
  0.00000000E+00  0.00000000E+00  0.00000000E+00
