Generated using phonoLAMMPS             
   1.00000000000000     
     3.9660000000000002    0.0000000000000000    0.0000000000000000
     0.0000000000000000    3.9620000000000002    0.0000000000000000
     0.0000000000000000    0.0000000000000000    3.9784018135329569
   Pb   Ti   O 
     1     1     3
Direct
  0.0444091826702529  0.0000000000000000  0.0788860502798393
  0.5349333412726239  0.5000000000000000  0.5444170902158559
  0.5052507019790055  0.5000000000000000  0.9987966805086403
  0.5062078112954337  0.0000000000000000  0.4889634316961066
  0.0091989627837438  0.5000000000000000  0.4889367473004978
 
  0.00000000E+00  0.00000000E+00  0.00000000E+00
  0.00000000E+00  0.00000000E+00  0.00000000E+00
  0.00000000E+00  0.00000000E+00  0.00000000E+00
  0.00000000E+00  0.00000000E+00  0.00000000E+00
  0.00000000E+00  0.00000000E+00  0.00000000E+00
