Generated using phonoLAMMPS             
   1.00000000000000     
     3.9640000000000000    0.0000000000000000    0.0000000000000000
     0.0000000000000000    3.9460000000000002    0.0000000000000000
     0.0000000000000000    0.0000000000000000    3.9118041444067262
   Pb   Ti   O 
     1     1     3
Direct
  0.0676334030530064  0.0494037150655515  0.0000000000000000
  0.5428192818767746  0.5364245084099297  0.5000000000000000
  0.4928000557528942  0.5023870999507097  0.0000000000000000
  0.4936556017985573  0.0088463571667077  0.5000000000000000
  0.0030916575187738  0.5029383194070914  0.5000000000000000
 
  0.00000000E+00  0.00000000E+00  0.00000000E+00
  0.00000000E+00  0.00000000E+00  0.00000000E+00
  0.00000000E+00  0.00000000E+00  0.00000000E+00
  0.00000000E+00  0.00000000E+00  0.00000000E+00
  0.00000000E+00  0.00000000E+00  0.00000000E+00
