Generated using phonoLAMMPS             
   1.00000000000000     
     3.9700000000000002    0.0000000000000000    0.0000000000000000
     0.0000000000000000    3.9580000000000002    0.0000000000000000
     0.0000000000000000    0.0000000000000000    3.9084008863011221
   Pb   Ti   O 
     1     1     3
Direct
  0.0795447595034643  0.0000000000000000  0.0207189757935234
  0.5457226367988477  0.5000000000000000  0.5204386300963263
  0.4863614822107766  0.5000000000000000  0.0197205224759159
  0.4888406769621277  0.0000000000000000  0.5195721726855703
 -0.0004695554753572  0.5000000000000000  0.5195496989486781
 
  0.00000000E+00  0.00000000E+00  0.00000000E+00
  0.00000000E+00  0.00000000E+00  0.00000000E+00
  0.00000000E+00  0.00000000E+00  0.00000000E+00
  0.00000000E+00  0.00000000E+00  0.00000000E+00
  0.00000000E+00  0.00000000E+00  0.00000000E+00
