Generated using phonoLAMMPS             
   1.00000000000000     
     3.9460000000000002    0.0000000000000000    0.0000000000000000
     0.0000000000000000    3.9359999999999999    0.0000000000000000
     0.0000000000000000    0.0000000000000000    4.0421237521848052
   Pb   Ti   O 
     1     1     3
Direct
  0.0000000000000000  0.0000000000000000  0.0942858235709332
  0.5000000000000000  0.5000000000000000  0.5545108641885780
  0.5000000000000000  0.5000000000000000 -0.0033536617171228
  0.5000000000000000  0.0000000000000000  0.4870344532443358
  0.0000000000000000  0.5000000000000000  0.4875225207132731
 
  0.00000000E+00  0.00000000E+00  0.00000000E+00
  0.00000000E+00  0.00000000E+00  0.00000000E+00
  0.00000000E+00  0.00000000E+00  0.00000000E+00
  0.00000000E+00  0.00000000E+00  0.00000000E+00
  0.00000000E+00  0.00000000E+00  0.00000000E+00
