Generated using phonoLAMMPS             
   1.00000000000000     
     3.9660000000000002    0.0000000000000000    0.0000000000000000
     0.0000000000000000    3.9540000000000002    0.0000000000000000
     0.0000000000000000    0.0000000000000000    3.9111771500009094
   Pb   Ti   O 
     1     1     3
Direct
  0.0788187837319813  0.0000000000000000  0.0214789007707643
  0.5454125720332920  0.5000000000000000  0.5208907978258329
  0.4868486349225659  0.5000000000000000  0.0194224788824990
  0.4889870163284841  0.0000000000000000  0.5191312139484280
 -0.0000670070163292  0.5000000000000000  0.5190766085725359
 
  0.00000000E+00  0.00000000E+00  0.00000000E+00
  0.00000000E+00  0.00000000E+00  0.00000000E+00
  0.00000000E+00  0.00000000E+00  0.00000000E+00
  0.00000000E+00  0.00000000E+00  0.00000000E+00
  0.00000000E+00  0.00000000E+00  0.00000000E+00
