Generated using phonoLAMMPS             
   1.00000000000000     
     3.9520000000000000    0.0000000000000000    0.0000000000000000
     0.0000000000000000    3.9440000000000000    0.0000000000000000
     0.0000000000000000    0.0000000000000000    3.9410347970207478
   Pb   Ti   O 
     1     1     3
Direct
  0.0705602157564889  0.0644418504300276  0.0332889086555641
  0.5523023211023245  0.5498049017653234  0.5191550051588623
  0.5126762681553356  0.5159352153742969  0.9926975229911413
  0.5127671736503213  0.0222487805993801  0.4866106138967985
  0.0201596557236068  0.5160348862190770  0.4866224565874659
 
  0.00000000E+00  0.00000000E+00  0.00000000E+00
  0.00000000E+00  0.00000000E+00  0.00000000E+00
  0.00000000E+00  0.00000000E+00  0.00000000E+00
  0.00000000E+00  0.00000000E+00  0.00000000E+00
  0.00000000E+00  0.00000000E+00  0.00000000E+00
