Generated using phonoLAMMPS             
   1.00000000000000     
     3.9440000000000000    0.0000000000000000    0.0000000000000000
     0.0000000000000000    3.9380000000000002    0.0000000000000000
     0.0000000000000000    0.0000000000000000    4.0424789020235572
   Pb   Ti   O 
     1     1     3
Direct
  0.0196358633710969  0.0000000000000000  0.0903975520075809
  0.5198165079142744  0.5000000000000000  0.5505242740197527
  0.5202217469254096  0.5000000000000000 -0.0074140092390401
  0.5201819658343968  0.0000000000000000  0.4831156356175003
  0.0201439159548134  0.5000000000000000  0.4833765475941424
 
  0.00000000E+00  0.00000000E+00  0.00000000E+00
  0.00000000E+00  0.00000000E+00  0.00000000E+00
  0.00000000E+00  0.00000000E+00  0.00000000E+00
  0.00000000E+00  0.00000000E+00  0.00000000E+00
  0.00000000E+00  0.00000000E+00  0.00000000E+00
