Generated using phonoLAMMPS             
   1.00000000000000     
     3.9520000000000000    0.0000000000000000    0.0000000000000000
     0.0000000000000000    3.9460000000000002    0.0000000000000000
     0.0000000000000000    0.0000000000000000    4.0293445843760631
   Pb   Ti   O 
     1     1     3
Direct
  0.0204531756400122  0.0000000000000000  0.0898827236244038
  0.5203293620062979  0.5000000000000000  0.5495379180248599
  0.5197336769275492  0.5000000000000000 -0.0067293459297287
  0.5197094405202158  0.0000000000000000  0.4835043697440765
  0.0197743449057952  0.5000000000000000  0.4838043345364703
 
  0.00000000E+00  0.00000000E+00  0.00000000E+00
  0.00000000E+00  0.00000000E+00  0.00000000E+00
  0.00000000E+00  0.00000000E+00  0.00000000E+00
  0.00000000E+00  0.00000000E+00  0.00000000E+00
  0.00000000E+00  0.00000000E+00  0.00000000E+00
