Generated using phonoLAMMPS             
   1.00000000000000     
     3.9560000000000000    0.0000000000000000    0.0000000000000000
     0.0000000000000000    3.9440000000000000    0.0000000000000000
     0.0000000000000000    0.0000000000000000    3.9302646323522845
   Pb   Ti   O 
     1     1     3
Direct
  0.0745966789794190  0.0644995169357007  0.0262021095633835
  0.5539100391584885  0.5500283533599527  0.5159294895542431
  0.5104150455169941  0.5157610335184112  0.9952577050536654
  0.5106526079863704  0.0222334509828306  0.4904964172103551
  0.0188912627468385  0.5159432795911738  0.4904887859081872
 
  0.00000000E+00  0.00000000E+00  0.00000000E+00
  0.00000000E+00  0.00000000E+00  0.00000000E+00
  0.00000000E+00  0.00000000E+00  0.00000000E+00
  0.00000000E+00  0.00000000E+00  0.00000000E+00
  0.00000000E+00  0.00000000E+00  0.00000000E+00
