Generated using phonoLAMMPS             
   1.00000000000000     
     3.9660000000000002    0.0000000000000000    0.0000000000000000
     0.0000000000000000    3.9480000000000000    0.0000000000000000
     0.0000000000000000    0.0000000000000000    3.9762677529529480
   Pb   Ti   O 
     1     1     3
Direct
  0.0498524717531191  0.0000000000000000  0.0741719655751931
  0.5368977235835880  0.5000000000000000  0.5436427580588886
  0.5025400108896100  0.5000000000000000  1.0003138576747876
  0.5031094997954203  0.0000000000000000  0.4908218930046210
  0.0076002939786442  0.5000000000000000  0.4910495256861914
 
  0.00000000E+00  0.00000000E+00  0.00000000E+00
  0.00000000E+00  0.00000000E+00  0.00000000E+00
  0.00000000E+00  0.00000000E+00  0.00000000E+00
  0.00000000E+00  0.00000000E+00  0.00000000E+00
  0.00000000E+00  0.00000000E+00  0.00000000E+00
