Generated using phonoLAMMPS             
   1.00000000000000     
     3.9660000000000002    0.0000000000000000    0.0000000000000000
     0.0000000000000000    3.9600000000000000    0.0000000000000000
     0.0000000000000000    0.0000000000000000    3.9054040449474021
   Pb   Ti   O 
     1     1     3
Direct
  0.0767483865587196  0.0703932991396120  0.0055272704517801
  0.5553081647385597  0.5531701027866065  0.5046516588095337
  0.5086045529421988  0.5119626176071379  1.0030101006768777
  0.5099116511320446  0.0198884624308122  0.5025961303308017
  0.0178928790166056  0.5130511524239623  0.5025893470208358
 
  0.00000000E+00  0.00000000E+00  0.00000000E+00
  0.00000000E+00  0.00000000E+00  0.00000000E+00
  0.00000000E+00  0.00000000E+00  0.00000000E+00
  0.00000000E+00  0.00000000E+00  0.00000000E+00
  0.00000000E+00  0.00000000E+00  0.00000000E+00
