Generated using phonoLAMMPS             
   1.00000000000000     
     3.9560000000000000    0.0000000000000000    0.0000000000000000
     0.0000000000000000    3.9560000000000000    0.0000000000000000
     0.0000000000000000    0.0000000000000000    3.9117232778800828
   Pb   Ti   O 
     1     1     3
Direct
  0.0727145086562266  0.0727145086562266  0.0104791751690922
  0.5536709304478471  0.5536709304478471  0.5074536025502371
  0.5109410053734912  0.5109410053734912  1.0011550113400036
  0.5117084779857597  0.0194307119247707  0.4996433591152686
  0.0194307119247707  0.5117084779857597  0.4996433591152686
 
  0.00000000E+00  0.00000000E+00  0.00000000E+00
  0.00000000E+00  0.00000000E+00  0.00000000E+00
  0.00000000E+00  0.00000000E+00  0.00000000E+00
  0.00000000E+00  0.00000000E+00  0.00000000E+00
  0.00000000E+00  0.00000000E+00  0.00000000E+00
