Generated using phonoLAMMPS             
   1.00000000000000     
     3.9359999999999999    0.0000000000000000    0.0000000000000000
     0.0000000000000000    3.9319999999999999    0.0000000000000000
     0.0000000000000000    0.0000000000000000    4.0536266860079797
   Pb   Ti   O 
     1     1     3
Direct
  0.0199917715764628  0.0000000000000000  0.0906775729776804
  0.5200303105905951  0.5000000000000000  0.5513533306861030
  0.5199831714757908  0.5000000000000000 -0.0079325164325155
  0.5199982638065720  0.0000000000000000  0.4828374980288289
  0.0199964825505489  0.5000000000000000  0.4830641147399061
 
  0.00000000E+00  0.00000000E+00  0.00000000E+00
  0.00000000E+00  0.00000000E+00  0.00000000E+00
  0.00000000E+00  0.00000000E+00  0.00000000E+00
  0.00000000E+00  0.00000000E+00  0.00000000E+00
  0.00000000E+00  0.00000000E+00  0.00000000E+00
