Generated using phonoLAMMPS
   1.00000000000000
     3.936   0.0000000000000000   0.0000000000000000
     0.0000000000000000    3.932   0.0000000000000000
    0.0000000000000000   0.0000000000000000    4.0
   Pb   Ti   O
     1     1     3
Direct
0.06  0.00  0.06
0.54  0.50  0.54
0.50  0.50  0.00
0.50  0.00  0.50
0.00  0.50  0.50

