Generated using phonoLAMMPS             
   1.00000000000000     
     3.9600000000000000    0.0000000000000000    0.0000000000000000
     0.0000000000000000    3.9560000000000000    0.0000000000000000
     0.0000000000000000    0.0000000000000000    3.9088748434111542
   Pb   Ti   O 
     1     1     3
Direct
  0.0610450113530909  0.0578341743502174  0.0000000000000000
  0.5408141330095192  0.5396334573431578  0.5000000000000000
  0.4960944099479516  0.4977830568529729  0.0000000000000000
  0.4970293547156446  0.0060630194544349  0.5000000000000000
  0.0050170909737912  0.4986862919992236  0.5000000000000000
 
  0.00000000E+00  0.00000000E+00  0.00000000E+00
  0.00000000E+00  0.00000000E+00  0.00000000E+00
  0.00000000E+00  0.00000000E+00  0.00000000E+00
  0.00000000E+00  0.00000000E+00  0.00000000E+00
  0.00000000E+00  0.00000000E+00  0.00000000E+00
