Generated using phonoLAMMPS             
   1.00000000000000     
     3.9600000000000000    0.0000000000000000    0.0000000000000000
     0.0000000000000000    3.9600000000000000    0.0000000000000000
     0.0000000000000000    0.0000000000000000    3.9076223445505014
   Pb   Ti   O 
     1     1     3
Direct
  0.0733306394682314  0.0733306394682314  0.0063844680306647
  0.5540518191189892  0.5540518191189892  0.5051314910733077
  0.5105038138528187  0.5105038138528187  1.0026944669786011
  0.5114940581410328  0.0190853038071265  0.5020820406036760
  0.0190853038071265  0.5114940581410328  0.5020820406036760
 
  0.00000000E+00  0.00000000E+00  0.00000000E+00
  0.00000000E+00  0.00000000E+00  0.00000000E+00
  0.00000000E+00  0.00000000E+00  0.00000000E+00
  0.00000000E+00  0.00000000E+00  0.00000000E+00
  0.00000000E+00  0.00000000E+00  0.00000000E+00
