Generated using phonoLAMMPS             
   1.00000000000000     
     3.9580000000000002    0.0000000000000000    0.0000000000000000
     0.0000000000000000    3.9319999999999999    0.0000000000000000
     0.0000000000000000    0.0000000000000000    3.9592806197985277
   Pb   Ti   O 
     1     1     3
Direct
  0.0717607459464668  0.0531107246427209  0.0423104886296274
  0.5528857247473703  0.5444247795151077  0.5231220375383404
  0.5122791068855025  0.5223626036787830  0.9892812792786391
  0.5120223221009880  0.0262276497274047  0.4816979019020767
  0.0195177347077890  0.5223398768241264  0.4819627999411287
 
  0.00000000E+00  0.00000000E+00  0.00000000E+00
  0.00000000E+00  0.00000000E+00  0.00000000E+00
  0.00000000E+00  0.00000000E+00  0.00000000E+00
  0.00000000E+00  0.00000000E+00  0.00000000E+00
  0.00000000E+00  0.00000000E+00  0.00000000E+00
