Generated using phonoLAMMPS             
   1.00000000000000     
     3.9540000000000002    0.0000000000000000    0.0000000000000000
     0.0000000000000000    3.9399999999999999    0.0000000000000000
     0.0000000000000000    0.0000000000000000    4.0326332435174983
   Pb   Ti   O 
     1     1     3
Direct
  0.0000000000000000  0.0000000000000000  0.0940237711670227
  0.5000000000000000  0.5000000000000000  0.5537923925973162
  0.5000000000000000  0.5000000000000000 -0.0028990285594180
  0.5000000000000000  0.0000000000000000  0.4872143775021325
  0.0000000000000000  0.5000000000000000  0.4878684872929404
 
  0.00000000E+00  0.00000000E+00  0.00000000E+00
  0.00000000E+00  0.00000000E+00  0.00000000E+00
  0.00000000E+00  0.00000000E+00  0.00000000E+00
  0.00000000E+00  0.00000000E+00  0.00000000E+00
  0.00000000E+00  0.00000000E+00  0.00000000E+00
