Generated using phonoLAMMPS             
   1.00000000000000     
     3.9640000000000000    0.0000000000000000    0.0000000000000000
     0.0000000000000000    3.9319999999999999    0.0000000000000000
     0.0000000000000000    0.0000000000000000    3.9312499884127354
   Pb   Ti   O 
     1     1     3
Direct
  0.0820911019838454  0.0540565907241334  0.0242263053763475
  0.5565126633417561  0.5454158808776469  0.5154100569149448
  0.5066348361571267  0.5215328152969023  0.9958113220989879
  0.5066829767457910  0.0258593550241914  0.4914471784190402
  0.0165440561595730  0.5216009924652725  0.4914796444804792
 
  0.00000000E+00  0.00000000E+00  0.00000000E+00
  0.00000000E+00  0.00000000E+00  0.00000000E+00
  0.00000000E+00  0.00000000E+00  0.00000000E+00
  0.00000000E+00  0.00000000E+00  0.00000000E+00
  0.00000000E+00  0.00000000E+00  0.00000000E+00
