Generated using phonoLAMMPS             
   1.00000000000000     
     3.9640000000000000    0.0000000000000000    0.0000000000000000
     0.0000000000000000    3.9460000000000002    0.0000000000000000
     0.0000000000000000    0.0000000000000000    4.0212109525994304
   Pb   Ti   O 
     1     1     3
Direct
  0.0000000000000000  0.0000000000000000  0.0938267660049658
  0.5000000000000000  0.5000000000000000  0.5529109589665950
  0.5000000000000000  0.5000000000000000 -0.0024094324795079
  0.5000000000000000  0.0000000000000000  0.4874305211053132
  0.0000000000000000  0.5000000000000000  0.4882411864026330
 
  0.00000000E+00  0.00000000E+00  0.00000000E+00
  0.00000000E+00  0.00000000E+00  0.00000000E+00
  0.00000000E+00  0.00000000E+00  0.00000000E+00
  0.00000000E+00  0.00000000E+00  0.00000000E+00
  0.00000000E+00  0.00000000E+00  0.00000000E+00
