Generated using phonoLAMMPS             
   1.00000000000000     
     3.9420000000000002    0.0000000000000000    0.0000000000000000
     0.0000000000000000    3.9420000000000002    0.0000000000000000
     0.0000000000000000    0.0000000000000000    4.0409835005045123
   Pb   Ti   O 
     1     1     3
Direct
  0.0205226723413162  0.0000000000000000  0.0903759033079579
  0.5203522437285866  0.5000000000000000  0.5504113068533240
  0.5196778164399006  0.5000000000000000 -0.0073444310444310
  0.5196869782175115  0.0000000000000000  0.4832782403356347
  0.0197602892726122  0.5000000000000000  0.4832789805475818
 
  0.00000000E+00  0.00000000E+00  0.00000000E+00
  0.00000000E+00  0.00000000E+00  0.00000000E+00
  0.00000000E+00  0.00000000E+00  0.00000000E+00
  0.00000000E+00  0.00000000E+00  0.00000000E+00
  0.00000000E+00  0.00000000E+00  0.00000000E+00
