Generated using phonoLAMMPS             
   1.00000000000000     
     3.9680000000000000    0.0000000000000000    0.0000000000000000
     0.0000000000000000    3.9340000000000002    0.0000000000000000
     0.0000000000000000    0.0000000000000000    3.9216161800678191
   Pb   Ti   O 
     1     1     3
Direct
  0.0771682132182538  0.0000000000000000  0.0297335510707649
  0.5453099911052157  0.5000000000000000  0.5262741527027872
  0.4882422737959182  0.5000000000000000  0.0160480990697905
  0.4889190119420107  0.0000000000000000  0.5140039853013961
  0.0003605099385558  0.5000000000000000  0.5139402118552984
 
  0.00000000E+00  0.00000000E+00  0.00000000E+00
  0.00000000E+00  0.00000000E+00  0.00000000E+00
  0.00000000E+00  0.00000000E+00  0.00000000E+00
  0.00000000E+00  0.00000000E+00  0.00000000E+00
  0.00000000E+00  0.00000000E+00  0.00000000E+00
