Generated using phonoLAMMPS             
   1.00000000000000     
     3.9700000000000002    0.0000000000000000    0.0000000000000000
     0.0000000000000000    3.9620000000000002    0.0000000000000000
     0.0000000000000000    0.0000000000000000    3.9034214284532993
   Pb   Ti   O 
     1     1     3
Direct
  0.0780533858933248  0.0696708372307159  0.0049718899191239
  0.5558344096396391  0.5530310866705985  0.5043280282617747
  0.5078551031552753  0.5122747902595808  1.0032269838454904
  0.5093673238435324  0.0200008481114091  0.5029265484510562
  0.0173554118563511  0.5134880721157947  0.5029210568124062
 
  0.00000000E+00  0.00000000E+00  0.00000000E+00
  0.00000000E+00  0.00000000E+00  0.00000000E+00
  0.00000000E+00  0.00000000E+00  0.00000000E+00
  0.00000000E+00  0.00000000E+00  0.00000000E+00
  0.00000000E+00  0.00000000E+00  0.00000000E+00
