Generated using phonoLAMMPS
   1.00000000000000
     3.966   0.0000000000000000   0.0000000000000000
     0.0000000000000000    3.962   0.0000000000000000
    0.0000000000000000   0.0000000000000000    4.0
   Pb   Ti   O
     1     1     3
Direct
  0.1222931268776247  0.1222931268776247  0.0842492122557923
  0.5392931268776247  0.5392931268776247  0.5090864064251259
  0.5022931268776247  0.5022931268776247  0.9784425468379967
  0.5022931268776247  0.0022931268776247  0.4732981708854576
  0.0022931268776247  0.5022931268776247  0.4732981708854576

