Generated using phonoLAMMPS             
   1.00000000000000     
     3.9520000000000000    0.0000000000000000    0.0000000000000000
     0.0000000000000000    3.9500000000000002    0.0000000000000000
     0.0000000000000000    0.0000000000000000    3.9330695644465843
   Pb   Ti   O 
     1     1     3
Direct
  0.0714970169569321  0.0000000000000000  0.0436312001792483
  0.5426217454720451  0.5000000000000000  0.5333733842586694
  0.4912121403379072  0.5000000000000000  0.0109128634951208
  0.4922547916848757  0.0000000000000000  0.5065527996425383
  0.0024143055482851  0.5000000000000000  0.5055297524243768
 
  0.00000000E+00  0.00000000E+00  0.00000000E+00
  0.00000000E+00  0.00000000E+00  0.00000000E+00
  0.00000000E+00  0.00000000E+00  0.00000000E+00
  0.00000000E+00  0.00000000E+00  0.00000000E+00
  0.00000000E+00  0.00000000E+00  0.00000000E+00
