Generated using phonoLAMMPS             
   1.00000000000000     
     3.9520000000000000    0.0000000000000000    0.0000000000000000
     0.0000000000000000    3.9500000000000002    0.0000000000000000
     0.0000000000000000    0.0000000000000000    3.9531917073809142
   Pb   Ti   O 
     1     1     3
Direct
  0.0626831372297681  0.0000000000000000  0.0584705010475638
  0.5400309158544276  0.5000000000000000  0.5390921035824074
  0.4959058478178942  0.5000000000000000  0.0057556599386336
  0.4967100916394434  0.0000000000000000  0.4988886012630520
  0.0046700074585323  0.5000000000000000  0.4977931341683626
 
  0.00000000E+00  0.00000000E+00  0.00000000E+00
  0.00000000E+00  0.00000000E+00  0.00000000E+00
  0.00000000E+00  0.00000000E+00  0.00000000E+00
  0.00000000E+00  0.00000000E+00  0.00000000E+00
  0.00000000E+00  0.00000000E+00  0.00000000E+00
