Generated using phonoLAMMPS             
   1.00000000000000     
     3.9460000000000002    0.0000000000000000    0.0000000000000000
     0.0000000000000000    3.9440000000000000    0.0000000000000000
     0.0000000000000000    0.0000000000000000    4.0360937944543522
   Pb   Ti   O 
     1     1     3
Direct
  0.0195816178501311  0.0000000000000000  0.0901975652735307
  0.5197100799347917  0.5000000000000000  0.5500469035766323
  0.5202098631359688  0.5000000000000000 -0.0070952718322237
  0.5202990201170434  0.0000000000000000  0.4833713576562478
  0.0201994189621063  0.5000000000000000  0.4834794453258445
 
  0.00000000E+00  0.00000000E+00  0.00000000E+00
  0.00000000E+00  0.00000000E+00  0.00000000E+00
  0.00000000E+00  0.00000000E+00  0.00000000E+00
  0.00000000E+00  0.00000000E+00  0.00000000E+00
  0.00000000E+00  0.00000000E+00  0.00000000E+00
