Generated using phonoLAMMPS             
   1.00000000000000     
     3.9580000000000002    0.0000000000000000    0.0000000000000000
     0.0000000000000000    3.9520000000000000    0.0000000000000000
     0.0000000000000000    0.0000000000000000    4.0209068503292178
   Pb   Ti   O 
     1     1     3
Direct
  0.0000000000000000  0.0000000000000000  0.0937948371163517
  0.5000000000000000  0.5000000000000000  0.5528857802411445
  0.5000000000000000  0.5000000000000000 -0.0023808940822660
  0.5000000000000000  0.0000000000000000  0.4877132723100934
  0.0000000000000000  0.5000000000000000  0.4879870044146712
 
  0.00000000E+00  0.00000000E+00  0.00000000E+00
  0.00000000E+00  0.00000000E+00  0.00000000E+00
  0.00000000E+00  0.00000000E+00  0.00000000E+00
  0.00000000E+00  0.00000000E+00  0.00000000E+00
  0.00000000E+00  0.00000000E+00  0.00000000E+00
