Generated using phonoLAMMPS             
   1.00000000000000     
     3.9580000000000002    0.0000000000000000    0.0000000000000000
     0.0000000000000000    3.9340000000000002    0.0000000000000000
     0.0000000000000000    0.0000000000000000    4.0323072580691406
   Pb   Ti   O 
     1     1     3
Direct
  0.0250014229448907  0.0000000000000000  0.0895410044102527
  0.5238769434782621  0.5000000000000000  0.5497322821514913
  0.5170378346564044  0.5000000000000000 -0.0067249016202821
  0.5166773810569851  0.0000000000000000  0.4831123688672483
  0.0174064178634805  0.5000000000000000  0.4843392461913341
 
  0.00000000E+00  0.00000000E+00  0.00000000E+00
  0.00000000E+00  0.00000000E+00  0.00000000E+00
  0.00000000E+00  0.00000000E+00  0.00000000E+00
  0.00000000E+00  0.00000000E+00  0.00000000E+00
  0.00000000E+00  0.00000000E+00  0.00000000E+00
