Generated using phonoLAMMPS             
   1.00000000000000     
     3.9580000000000002    0.0000000000000000    0.0000000000000000
     0.0000000000000000    3.9340000000000002    0.0000000000000000
     0.0000000000000000    0.0000000000000000    3.9746244235495403
   Pb   Ti   O 
     1     1     3
Direct
  0.0561544138294314  0.0000000000000000  0.0671166934435246
  0.5384306601283065  0.5000000000000000  0.5425527796767541
  0.4996011334409645  0.5000000000000000  0.0024385847083383
  0.4995462553490595  0.0000000000000000  0.4939522791119522
  0.0062675372522463  0.5000000000000000  0.4939396630594077
 
  0.00000000E+00  0.00000000E+00  0.00000000E+00
  0.00000000E+00  0.00000000E+00  0.00000000E+00
  0.00000000E+00  0.00000000E+00  0.00000000E+00
  0.00000000E+00  0.00000000E+00  0.00000000E+00
  0.00000000E+00  0.00000000E+00  0.00000000E+00
