Generated using phonoLAMMPS             
   1.00000000000000     
     3.9600000000000000    0.0000000000000000    0.0000000000000000
     0.0000000000000000    3.9460000000000002    0.0000000000000000
     0.0000000000000000    0.0000000000000000    3.9184073747987722
   Pb   Ti   O 
     1     1     3
Direct
  0.0782308979601877  0.0645543855673652  0.0169372188556058
  0.5553583872878718  0.5504493007346278  0.5111638924143939
  0.5082480270499792  0.5154742591013195  0.9986904965605482
  0.5088626970527108  0.0221280202133378  0.4958143821893935
  0.0177656250374124  0.5158596687714070  0.4957685172698990
 
  0.00000000E+00  0.00000000E+00  0.00000000E+00
  0.00000000E+00  0.00000000E+00  0.00000000E+00
  0.00000000E+00  0.00000000E+00  0.00000000E+00
  0.00000000E+00  0.00000000E+00  0.00000000E+00
  0.00000000E+00  0.00000000E+00  0.00000000E+00
