Generated using phonoLAMMPS             
   1.00000000000000     
     3.9340000000000002    0.0000000000000000    0.0000000000000000
     0.0000000000000000    3.9319999999999999    0.0000000000000000
     0.0000000000000000    0.0000000000000000    4.0559941885030177
   Pb   Ti   O 
     1     1     3
Direct
  0.0000000000000000  0.0000000000000000  0.0948924345069525
  0.5000000000000000  0.5000000000000000  0.5555326756502345
  0.5000000000000000  0.5000000000000000 -0.0040936899512633
  0.5000000000000000  0.0000000000000000  0.4867789236665040
  0.0000000000000000  0.5000000000000000  0.4868896561275718
 
  0.00000000E+00  0.00000000E+00  0.00000000E+00
  0.00000000E+00  0.00000000E+00  0.00000000E+00
  0.00000000E+00  0.00000000E+00  0.00000000E+00
  0.00000000E+00  0.00000000E+00  0.00000000E+00
  0.00000000E+00  0.00000000E+00  0.00000000E+00
