Generated using phonoLAMMPS             
   1.00000000000000     
     3.9580000000000002    0.0000000000000000    0.0000000000000000
     0.0000000000000000    3.9520000000000000    0.0000000000000000
     0.0000000000000000    0.0000000000000000    3.9112489194473339
   Pb   Ti   O 
     1     1     3
Direct
  0.0624351401554033  0.0557473663552903  0.0000000000000000
  0.5410965685674290  0.5388280248229232  0.5000000000000000
  0.4954972362864573  0.4990374487334262  0.0000000000000000
  0.4962328403686145  0.0068075127308927  0.5000000000000000
  0.0047382146220932  0.4995796473574757  0.5000000000000000
 
  0.00000000E+00  0.00000000E+00  0.00000000E+00
  0.00000000E+00  0.00000000E+00  0.00000000E+00
  0.00000000E+00  0.00000000E+00  0.00000000E+00
  0.00000000E+00  0.00000000E+00  0.00000000E+00
  0.00000000E+00  0.00000000E+00  0.00000000E+00
