Generated using phonoLAMMPS             
   1.00000000000000     
     3.9580000000000002    0.0000000000000000    0.0000000000000000
     0.0000000000000000    3.9560000000000000    0.0000000000000000
     0.0000000000000000    0.0000000000000000    3.9095891588854701
   Pb   Ti   O 
     1     1     3
Direct
  0.0598792652383745  0.0587823873906008  0.0000000000000000
  0.5403838564184220  0.5399188087590260  0.5000000000000000
  0.4967531125282695  0.4973280031334112  0.0000000000000000
  0.4975653523004473  0.0058031061583529  0.5000000000000000
  0.0054184135144810  0.4981676945586165  0.5000000000000000
 
  0.00000000E+00  0.00000000E+00  0.00000000E+00
  0.00000000E+00  0.00000000E+00  0.00000000E+00
  0.00000000E+00  0.00000000E+00  0.00000000E+00
  0.00000000E+00  0.00000000E+00  0.00000000E+00
  0.00000000E+00  0.00000000E+00  0.00000000E+00
