Generated using phonoLAMMPS             
   1.00000000000000     
     3.9640000000000000    0.0000000000000000    0.0000000000000000
     0.0000000000000000    3.9580000000000002    0.0000000000000000
     0.0000000000000000    0.0000000000000000    3.9789755766849173
   Pb   Ti   O 
     1     1     3
Direct
  0.0457508159923456  0.0000000000000000  0.0776741700000914
  0.5352987600503533  0.5000000000000000  0.5443335602099112
  0.5046005147653667  0.5000000000000000  0.9991391382924022
  0.5054488196979123  0.0000000000000000  0.4894526948915110
  0.0089010894941445  0.5000000000000000  0.4894004366060367
 
  0.00000000E+00  0.00000000E+00  0.00000000E+00
  0.00000000E+00  0.00000000E+00  0.00000000E+00
  0.00000000E+00  0.00000000E+00  0.00000000E+00
  0.00000000E+00  0.00000000E+00  0.00000000E+00
  0.00000000E+00  0.00000000E+00  0.00000000E+00
