Generated using phonoLAMMPS             
   1.00000000000000     
     3.9640000000000000    0.0000000000000000    0.0000000000000000
     0.0000000000000000    3.9340000000000002    0.0000000000000000
     0.0000000000000000    0.0000000000000000    3.9173649655971237
   Pb   Ti   O 
     1     1     3
Direct
  0.0717227412515804  0.0416035898105995  0.0000000000000000
  0.5439477092443165  0.5328550156949211  0.5000000000000000
  0.4909072132717937  0.5068187397344774  0.0000000000000000
  0.4913762535411617  0.0116324464062768  0.5000000000000000
  0.0020460826911422  0.5070902083537511  0.5000000000000000
 
  0.00000000E+00  0.00000000E+00  0.00000000E+00
  0.00000000E+00  0.00000000E+00  0.00000000E+00
  0.00000000E+00  0.00000000E+00  0.00000000E+00
  0.00000000E+00  0.00000000E+00  0.00000000E+00
  0.00000000E+00  0.00000000E+00  0.00000000E+00
