Generated using phonoLAMMPS             
   1.00000000000000     
     3.9620000000000002    0.0000000000000000    0.0000000000000000
     0.0000000000000000    3.9440000000000000    0.0000000000000000
     0.0000000000000000    0.0000000000000000    3.9178029943738242
   Pb   Ti   O 
     1     1     3
Direct
  0.0801151918813751  0.0624449915246532  0.0156762889414169
  0.5559901067058268  0.5496362166447415  0.5105386159556351
  0.5072694619246291  0.5166008369420508  0.9991400907981717
  0.5079119887416969  0.0228167953470636  0.4965314849466126
  0.0171788851345997  0.5169667939297126  0.4964880266480636
 
  0.00000000E+00  0.00000000E+00  0.00000000E+00
  0.00000000E+00  0.00000000E+00  0.00000000E+00
  0.00000000E+00  0.00000000E+00  0.00000000E+00
  0.00000000E+00  0.00000000E+00  0.00000000E+00
  0.00000000E+00  0.00000000E+00  0.00000000E+00
