Generated using phonoLAMMPS             
   1.00000000000000     
     3.9480000000000000    0.0000000000000000    0.0000000000000000
     0.0000000000000000    3.9440000000000000    0.0000000000000000
     0.0000000000000000    0.0000000000000000    4.0337536613028702
   Pb   Ti   O 
     1     1     3
Direct
  0.0207885803320720  0.0000000000000000  0.0899891964157188
  0.5205862516723331  0.5000000000000000  0.5498698343828082
  0.5195240414824324  0.5000000000000000 -0.0069346488284243
  0.5194876718491022  0.0000000000000000  0.4834339420256774
  0.0196134546638885  0.5000000000000000  0.4836416760042217
 
  0.00000000E+00  0.00000000E+00  0.00000000E+00
  0.00000000E+00  0.00000000E+00  0.00000000E+00
  0.00000000E+00  0.00000000E+00  0.00000000E+00
  0.00000000E+00  0.00000000E+00  0.00000000E+00
  0.00000000E+00  0.00000000E+00  0.00000000E+00
