Generated using phonoLAMMPS             
   1.00000000000000     
     3.9600000000000000    0.0000000000000000    0.0000000000000000
     0.0000000000000000    3.9440000000000000    0.0000000000000000
     0.0000000000000000    0.0000000000000000    3.9244982026970563
   Pb   Ti   O 
     1     1     3
Direct
  0.0752747996972386  0.0000000000000000  0.0353228803135505
  0.5442205634067300  0.5000000000000000  0.5293282166832805
  0.4891454396904051  0.5000000000000000  0.0139359246048975
  0.4902193313667628  0.0000000000000000  0.5109359464196532
  0.0011398658389046  0.5000000000000000  0.5104770319786432
 
  0.00000000E+00  0.00000000E+00  0.00000000E+00
  0.00000000E+00  0.00000000E+00  0.00000000E+00
  0.00000000E+00  0.00000000E+00  0.00000000E+00
  0.00000000E+00  0.00000000E+00  0.00000000E+00
  0.00000000E+00  0.00000000E+00  0.00000000E+00
