Generated using phonoLAMMPS             
   1.00000000000000     
     3.9620000000000002    0.0000000000000000    0.0000000000000000
     0.0000000000000000    3.9620000000000002    0.0000000000000000
     0.0000000000000000    0.0000000000000000    3.9060243372475081
   Pb   Ti   O 
     1     1     3
Direct
  0.0599229103866309  0.0599229103866309  0.0000000000000000
  0.5405183567913759  0.5405183567913759  0.5000000000000000
  0.4966356209674929  0.4966356209674929  0.0000000000000000
  0.4976911412631256  0.0052319705913754  0.5000000000000000
  0.0052319705913754  0.4976911412631256  0.5000000000000000
 
  0.00000000E+00  0.00000000E+00  0.00000000E+00
  0.00000000E+00  0.00000000E+00  0.00000000E+00
  0.00000000E+00  0.00000000E+00  0.00000000E+00
  0.00000000E+00  0.00000000E+00  0.00000000E+00
  0.00000000E+00  0.00000000E+00  0.00000000E+00
