Generated using phonoLAMMPS             
   1.00000000000000     
     3.9380000000000002    0.0000000000000000    0.0000000000000000
     0.0000000000000000    3.9359999999999999    0.0000000000000000
     0.0000000000000000    0.0000000000000000    4.0486874691987413
   Pb   Ti   O 
     1     1     3
Direct
  0.0000000000000000  0.0000000000000000  0.0945152125346983
  0.5000000000000000  0.5000000000000000  0.5549913685580902
  0.5000000000000000  0.5000000000000000 -0.0036931767280773
  0.5000000000000000  0.0000000000000000  0.4870416663599963
  0.0000000000000000  0.5000000000000000  0.4871449292752928
 
  0.00000000E+00  0.00000000E+00  0.00000000E+00
  0.00000000E+00  0.00000000E+00  0.00000000E+00
  0.00000000E+00  0.00000000E+00  0.00000000E+00
  0.00000000E+00  0.00000000E+00  0.00000000E+00
  0.00000000E+00  0.00000000E+00  0.00000000E+00
