Generated using phonoLAMMPS             
   1.00000000000000     
     3.9540000000000002    0.0000000000000000    0.0000000000000000
     0.0000000000000000    3.9480000000000000    0.0000000000000000
     0.0000000000000000    0.0000000000000000    3.9141648425572231
   Pb   Ti   O 
     1     1     3
Direct
  0.0615260463494918  0.0557990184424574  0.0000000000000000
  0.5406840842754685  0.5386672098155647  0.5000000000000000
  0.4960727562595489  0.4990791734636076  0.0000000000000000
  0.4965596294252630  0.0069674716204415  0.5000000000000000
  0.0051574836902274  0.4994871266579320  0.5000000000000000
 
  0.00000000E+00  0.00000000E+00  0.00000000E+00
  0.00000000E+00  0.00000000E+00  0.00000000E+00
  0.00000000E+00  0.00000000E+00  0.00000000E+00
  0.00000000E+00  0.00000000E+00  0.00000000E+00
  0.00000000E+00  0.00000000E+00  0.00000000E+00
