Generated using phonoLAMMPS             
   1.00000000000000     
     3.9540000000000002    0.0000000000000000    0.0000000000000000
     0.0000000000000000    3.9460000000000002    0.0000000000000000
     0.0000000000000000    0.0000000000000000    3.9149656207741885
   Pb   Ti   O 
     1     1     3
Direct
  0.0627359971930611  0.0542872158304046  0.0000000000000000
  0.5410377257342566  0.5380851327097864  0.5000000000000000
  0.4954446386977585  0.4999156826977359  0.0000000000000000
  0.4959375363520391  0.0074651797533615  0.5000000000000000
  0.0048441020228838  0.5002467890087128  0.5000000000000000
 
  0.00000000E+00  0.00000000E+00  0.00000000E+00
  0.00000000E+00  0.00000000E+00  0.00000000E+00
  0.00000000E+00  0.00000000E+00  0.00000000E+00
  0.00000000E+00  0.00000000E+00  0.00000000E+00
  0.00000000E+00  0.00000000E+00  0.00000000E+00
