Generated using phonoLAMMPS             
   1.00000000000000     
     3.9680000000000000    0.0000000000000000    0.0000000000000000
     0.0000000000000000    3.9600000000000000    0.0000000000000000
     0.0000000000000000    0.0000000000000000    3.9083010039762387
   Pb   Ti   O 
     1     1     3
Direct
  0.0793340340988156  0.0000000000000000  0.0212863843717242
  0.5455515225346148  0.5000000000000000  0.5207527250990547
  0.4864321384821844  0.5000000000000000  0.0195043652215795
  0.4890170325547996  0.0000000000000000  0.5192544407973343
 -0.0003347276704230  0.5000000000000000  0.5192020845103017
 
  0.00000000E+00  0.00000000E+00  0.00000000E+00
  0.00000000E+00  0.00000000E+00  0.00000000E+00
  0.00000000E+00  0.00000000E+00  0.00000000E+00
  0.00000000E+00  0.00000000E+00  0.00000000E+00
  0.00000000E+00  0.00000000E+00  0.00000000E+00
