Generated using phonoLAMMPS             
   1.00000000000000     
     3.9340000000000002    0.0000000000000000    0.0000000000000000
     0.0000000000000000    3.9319999999999999    0.0000000000000000
     0.0000000000000000    0.0000000000000000    4.0554917499213907
   Pb   Ti   O 
     1     1     3
Direct
  0.0197006592175087  0.0000000000000000  0.0907749549142429
  0.5198521922211119  0.5000000000000000  0.5514990493159718
  0.5201481338492913  0.5000000000000000 -0.0080328902362279
  0.5201761537523727  0.0000000000000000  0.4828336166294246
  0.0201228609596964  0.5000000000000000  0.4829252693766153
 
  0.00000000E+00  0.00000000E+00  0.00000000E+00
  0.00000000E+00  0.00000000E+00  0.00000000E+00
  0.00000000E+00  0.00000000E+00  0.00000000E+00
  0.00000000E+00  0.00000000E+00  0.00000000E+00
  0.00000000E+00  0.00000000E+00  0.00000000E+00
