Generated using phonoLAMMPS             
   1.00000000000000     
     3.9720000000000000    0.0000000000000000    0.0000000000000000
     0.0000000000000000    3.9420000000000002    0.0000000000000000
     0.0000000000000000    0.0000000000000000    3.9117432812748616
   Pb   Ti   O 
     1     1     3
Direct
  0.0865602039016879  0.0556995702586984  0.0056578627094156
  0.5582139584759058  0.5470956242184062  0.5048228570137874
  0.5037720071164161  0.5201116808709080  1.0029242591349121
  0.5048787326241505  0.0249120217571684  0.5024925440421205
  0.0150407322699373  0.5206467372829305  0.5024769843895728
 
  0.00000000E+00  0.00000000E+00  0.00000000E+00
  0.00000000E+00  0.00000000E+00  0.00000000E+00
  0.00000000E+00  0.00000000E+00  0.00000000E+00
  0.00000000E+00  0.00000000E+00  0.00000000E+00
  0.00000000E+00  0.00000000E+00  0.00000000E+00
