Generated using phonoLAMMPS             
   1.00000000000000     
     3.9560000000000000    0.0000000000000000    0.0000000000000000
     0.0000000000000000    3.9380000000000002    0.0000000000000000
     0.0000000000000000    0.0000000000000000    3.9461727405311344
   Pb   Ti   O 
     1     1     3
Direct
  0.0726205444742857  0.0596139087703591  0.0357623475255679
  0.5531290544855642  0.5475999712620633  0.5203260512999885
  0.5116838304592054  0.5186368611952044  0.9917444742814767
  0.5116347156478422  0.0239346993845236  0.4852246659241383
  0.0193974893212174  0.5186801937759694  0.4853169682586520
 
  0.00000000E+00  0.00000000E+00  0.00000000E+00
  0.00000000E+00  0.00000000E+00  0.00000000E+00
  0.00000000E+00  0.00000000E+00  0.00000000E+00
  0.00000000E+00  0.00000000E+00  0.00000000E+00
  0.00000000E+00  0.00000000E+00  0.00000000E+00
