Generated using phonoLAMMPS             
   1.00000000000000     
     3.9640000000000000    0.0000000000000000    0.0000000000000000
     0.0000000000000000    3.9480000000000000    0.0000000000000000
     0.0000000000000000    0.0000000000000000    3.9122450395120976
   Pb   Ti   O 
     1     1     3
Direct
  0.0806161880332043  0.0637954428548455  0.0098790289873727
  0.5562722922831452  0.5504330048844107  0.5072199510606957
  0.5068398237106627  0.5157128364990545  1.0013477440964547
  0.5077732673285099  0.0222562179392801  0.4999814460113017
  0.0169640630326256  0.5162681322104926  0.4999463371340054
 
  0.00000000E+00  0.00000000E+00  0.00000000E+00
  0.00000000E+00  0.00000000E+00  0.00000000E+00
  0.00000000E+00  0.00000000E+00  0.00000000E+00
  0.00000000E+00  0.00000000E+00  0.00000000E+00
  0.00000000E+00  0.00000000E+00  0.00000000E+00
