Generated using phonoLAMMPS             
   1.00000000000000     
     3.9680000000000000    0.0000000000000000    0.0000000000000000
     0.0000000000000000    3.9480000000000000    0.0000000000000000
     0.0000000000000000    0.0000000000000000    3.9097407156121218
   Pb   Ti   O 
     1     1     3
Direct
  0.0687125430695872  0.0486295669782590  0.0000000000000000
  0.5432803481561888  0.5362261457492813  0.5000000000000000
  0.4921137684634374  0.5027877145687927  0.0000000000000000
  0.4932761138495604  0.0089905677297279  0.5000000000000000
  0.0026172264612274  0.5033660049739440  0.5000000000000000
 
  0.00000000E+00  0.00000000E+00  0.00000000E+00
  0.00000000E+00  0.00000000E+00  0.00000000E+00
  0.00000000E+00  0.00000000E+00  0.00000000E+00
  0.00000000E+00  0.00000000E+00  0.00000000E+00
  0.00000000E+00  0.00000000E+00  0.00000000E+00
