Generated using phonoLAMMPS             
   1.00000000000000     
     3.9720000000000000    0.0000000000000000    0.0000000000000000
     0.0000000000000000    3.9560000000000000    0.0000000000000000
     0.0000000000000000    0.0000000000000000    3.9085872766705223
   Pb   Ti   O 
     1     1     3
Direct
  0.0796609771710317  0.0000000000000000  0.0209854324226416
  0.5458726918963586  0.5000000000000000  0.5206196702111471
  0.4863503441996753  0.5000000000000000  0.0196089698265065
  0.4887026789496382  0.0000000000000000  0.5194293429592648
 -0.0005866922167300  0.5000000000000000  0.5193565845804519
 
  0.00000000E+00  0.00000000E+00  0.00000000E+00
  0.00000000E+00  0.00000000E+00  0.00000000E+00
  0.00000000E+00  0.00000000E+00  0.00000000E+00
  0.00000000E+00  0.00000000E+00  0.00000000E+00
  0.00000000E+00  0.00000000E+00  0.00000000E+00
