Generated using phonoLAMMPS             
   1.00000000000000     
     3.9620000000000002    0.0000000000000000    0.0000000000000000
     0.0000000000000000    3.9540000000000002    0.0000000000000000
     0.0000000000000000    0.0000000000000000    3.9093740793879843
   Pb   Ti   O 
     1     1     3
Direct
  0.0772630596214296  0.0686433476468897  0.0070128082321811
  0.5552885898385735  0.5523562507017921  0.5055026640283290
  0.5084839541027950  0.5130368587794206  1.0024421713697766
  0.5094841548466701  0.0206355504971927  0.5017143070542170
  0.0179458759787884  0.5137936267626915  0.5017025566051164
 
  0.00000000E+00  0.00000000E+00  0.00000000E+00
  0.00000000E+00  0.00000000E+00  0.00000000E+00
  0.00000000E+00  0.00000000E+00  0.00000000E+00
  0.00000000E+00  0.00000000E+00  0.00000000E+00
  0.00000000E+00  0.00000000E+00  0.00000000E+00
