Generated using phonoLAMMPS             
   1.00000000000000     
     3.9680000000000000    0.0000000000000000    0.0000000000000000
     0.0000000000000000    3.9420000000000002    0.0000000000000000
     0.0000000000000000    0.0000000000000000    3.9124786289638696
   Pb   Ti   O 
     1     1     3
Direct
  0.0710517589304682  0.0444089384841270  0.0000000000000000
  0.5438981703827674  0.5343913487514673  0.5000000000000000
  0.4910148186931925  0.5051025648068380  0.0000000000000000
  0.4920193245232143  0.0104748350647258  0.5000000000000000
  0.0020159274703881  0.5056223128928228  0.5000000000000000
 
  0.00000000E+00  0.00000000E+00  0.00000000E+00
  0.00000000E+00  0.00000000E+00  0.00000000E+00
  0.00000000E+00  0.00000000E+00  0.00000000E+00
  0.00000000E+00  0.00000000E+00  0.00000000E+00
  0.00000000E+00  0.00000000E+00  0.00000000E+00
