Generated using phonoLAMMPS             
   1.00000000000000     
     3.9319999999999999    0.0000000000000000    0.0000000000000000
     0.0000000000000000    3.9319999999999999    0.0000000000000000
     0.0000000000000000    0.0000000000000000    4.0576677371552412
   Pb   Ti   O 
     1     1     3
Direct
 -0.0000000000000000 -0.0000000000000000  0.0949560274766257
  0.5000000000000000  0.5000000000000000  0.5556618439264301
  0.5000000000000000  0.5000000000000000 -0.0041707864815828
  0.5000000000000000 -0.0000000000000000  0.4867764575392631
 -0.0000000000000000  0.5000000000000000  0.4867764575392631
 
  0.00000000E+00  0.00000000E+00  0.00000000E+00
  0.00000000E+00  0.00000000E+00  0.00000000E+00
  0.00000000E+00  0.00000000E+00  0.00000000E+00
  0.00000000E+00  0.00000000E+00  0.00000000E+00
  0.00000000E+00  0.00000000E+00  0.00000000E+00
