Generated using phonoLAMMPS             
   1.00000000000000     
     3.9700000000000002    0.0000000000000000    0.0000000000000000
     0.0000000000000000    3.9680000000000000    0.0000000000000000
     0.0000000000000000    0.0000000000000000    3.9009519050583310
   Pb   Ti   O 
     1     1     3
Direct
  0.0610964847327034  0.0601190270204062  0.0000000000000000
  0.5412541685396688  0.5408316711564725  0.5000000000000000
  0.4957778412220404  0.4962858807315464  0.0000000000000000
  0.4973294703142088  0.0049006190892903  0.5000000000000000
  0.0045420351913811  0.4978628020022827  0.5000000000000000
 
  0.00000000E+00  0.00000000E+00  0.00000000E+00
  0.00000000E+00  0.00000000E+00  0.00000000E+00
  0.00000000E+00  0.00000000E+00  0.00000000E+00
  0.00000000E+00  0.00000000E+00  0.00000000E+00
  0.00000000E+00  0.00000000E+00  0.00000000E+00
