Generated using phonoLAMMPS             
   1.00000000000000     
     3.9460000000000002    0.0000000000000000    0.0000000000000000
     0.0000000000000000    3.9460000000000002    0.0000000000000000
     0.0000000000000000    0.0000000000000000    3.9687618719145301
   Pb   Ti   O 
     1     1     3
Direct
  0.0575951694848074  0.0000000000000000  0.0645729650006363
  0.5380817787869306  0.5000000000000000  0.5418245561513440
  0.4988555289829748  0.5000000000000000  0.0033495210284372
  0.4991272299730990  0.0000000000000000  0.4956918417695619
  0.0063402927722091  0.5000000000000000  0.4945611160499959
 
  0.00000000E+00  0.00000000E+00  0.00000000E+00
  0.00000000E+00  0.00000000E+00  0.00000000E+00
  0.00000000E+00  0.00000000E+00  0.00000000E+00
  0.00000000E+00  0.00000000E+00  0.00000000E+00
  0.00000000E+00  0.00000000E+00  0.00000000E+00
