Generated using phonoLAMMPS             
   1.00000000000000     
     3.9700000000000002    0.0000000000000000    0.0000000000000000
     0.0000000000000000    3.9600000000000000    0.0000000000000000
     0.0000000000000000    0.0000000000000000    3.9777295604358920
   Pb   Ti   O 
     1     1     3
Direct
  0.0443945654009759  0.0000000000000000  0.0790819593383091
  0.5352398922433393  0.5000000000000000  0.5443559078276524
  0.5051946678531675  0.5000000000000000  0.9987783137728541
  0.5061635494321260  0.0000000000000000  0.4887688056020265
  0.0090073250702987  0.5000000000000000  0.4890150134591008
 
  0.00000000E+00  0.00000000E+00  0.00000000E+00
  0.00000000E+00  0.00000000E+00  0.00000000E+00
  0.00000000E+00  0.00000000E+00  0.00000000E+00
  0.00000000E+00  0.00000000E+00  0.00000000E+00
  0.00000000E+00  0.00000000E+00  0.00000000E+00
