Generated using phonoLAMMPS             
   1.00000000000000     
     3.9540000000000002    0.0000000000000000    0.0000000000000000
     0.0000000000000000    3.9399999999999999    0.0000000000000000
     0.0000000000000000    0.0000000000000000    3.9642172512103317
   Pb   Ti   O 
     1     1     3
Direct
  0.0598272075131112  0.0000000000000000  0.0622804801983711
  0.5393416793093619  0.5000000000000000  0.5407988088513557
  0.4976094801856723  0.5000000000000000  0.0042320729492609
  0.4978109025817923  0.0000000000000000  0.4966514993391452
  0.0054107304100401  0.5000000000000000  0.4960371386617864
 
  0.00000000E+00  0.00000000E+00  0.00000000E+00
  0.00000000E+00  0.00000000E+00  0.00000000E+00
  0.00000000E+00  0.00000000E+00  0.00000000E+00
  0.00000000E+00  0.00000000E+00  0.00000000E+00
  0.00000000E+00  0.00000000E+00  0.00000000E+00
