Generated using phonoLAMMPS             
   1.00000000000000     
     3.9520000000000000    0.0000000000000000    0.0000000000000000
     0.0000000000000000    3.9480000000000000    0.0000000000000000
     0.0000000000000000    0.0000000000000000    3.9315363577883544
   Pb   Ti   O 
     1     1     3
Direct
  0.0710638982704530  0.0677851897055387  0.0275744035185736
  0.5525900790954406  0.5513202871599429  0.5164950068947146
  0.5122774510940504  0.5140128841999597  0.9947944203841664
  0.5125005880990223  0.0211248579268911  0.4897563254468189
  0.0200336178291306  0.5142224153958015  0.4897543510455827
 
  0.00000000E+00  0.00000000E+00  0.00000000E+00
  0.00000000E+00  0.00000000E+00  0.00000000E+00
  0.00000000E+00  0.00000000E+00  0.00000000E+00
  0.00000000E+00  0.00000000E+00  0.00000000E+00
  0.00000000E+00  0.00000000E+00  0.00000000E+00
