Generated using phonoLAMMPS             
   1.00000000000000     
     3.9520000000000000    0.0000000000000000    0.0000000000000000
     0.0000000000000000    3.9319999999999999    0.0000000000000000
     0.0000000000000000    0.0000000000000000    4.0409595921805170
   Pb   Ti   O 
     1     1     3
Direct
  0.0214174964713385  0.0000000000000000  0.0903405388036696
  0.5210491653356935  0.5000000000000000  0.5504130080710875
  0.5191806847987528  0.5000000000000000 -0.0073332838325472
  0.5190535354253325  0.0000000000000000  0.4827631563138732
  0.0192991179689395  0.5000000000000000  0.4838165806437333
 
  0.00000000E+00  0.00000000E+00  0.00000000E+00
  0.00000000E+00  0.00000000E+00  0.00000000E+00
  0.00000000E+00  0.00000000E+00  0.00000000E+00
  0.00000000E+00  0.00000000E+00  0.00000000E+00
  0.00000000E+00  0.00000000E+00  0.00000000E+00
