Generated using phonoLAMMPS             
   1.00000000000000     
     3.9720000000000000    0.0000000000000000    0.0000000000000000
     0.0000000000000000    3.9500000000000002    0.0000000000000000
     0.0000000000000000    0.0000000000000000    3.9109266750565199
   Pb   Ti   O 
     1     1     3
Direct
  0.0793494606144918  0.0000000000000000  0.0213580352902158
  0.5458809179300768  0.5000000000000000  0.5208166895252033
  0.4866282340308351  0.5000000000000000  0.0194702030573894
  0.4886108574077166  0.0000000000000000  0.5191981686990692
 -0.0004694699831166  0.5000000000000000  0.5191569034280922
 
  0.00000000E+00  0.00000000E+00  0.00000000E+00
  0.00000000E+00  0.00000000E+00  0.00000000E+00
  0.00000000E+00  0.00000000E+00  0.00000000E+00
  0.00000000E+00  0.00000000E+00  0.00000000E+00
  0.00000000E+00  0.00000000E+00  0.00000000E+00
