Generated using phonoLAMMPS             
   1.00000000000000     
     3.9680000000000000    0.0000000000000000    0.0000000000000000
     0.0000000000000000    3.9580000000000002    0.0000000000000000
     0.0000000000000000    0.0000000000000000    3.9785060939985861
   Pb   Ti   O 
     1     1     3
Direct
  0.0451274423092457  0.0000000000000000  0.0783908471892229
  0.5353545158938082  0.5000000000000000  0.5443493125543944
  0.5048787369430656  0.5000000000000000  0.9989513091153166
  0.5057455034862541  0.0000000000000000  0.4890551883560149
  0.0088938013674272  0.5000000000000000  0.4892533427854888
 
  0.00000000E+00  0.00000000E+00  0.00000000E+00
  0.00000000E+00  0.00000000E+00  0.00000000E+00
  0.00000000E+00  0.00000000E+00  0.00000000E+00
  0.00000000E+00  0.00000000E+00  0.00000000E+00
  0.00000000E+00  0.00000000E+00  0.00000000E+00
