Generated using phonoLAMMPS             
   1.00000000000000     
     3.9720000000000000    0.0000000000000000    0.0000000000000000
     0.0000000000000000    3.9319999999999999    0.0000000000000000
     0.0000000000000000    0.0000000000000000    3.9185928572598887
   Pb   Ti   O 
     1     1     3
Direct
  0.0782217228381275  0.0000000000000000  0.0252815727120475
  0.5458467464851721  0.5000000000000000  0.5234571254252894
  0.4876463723131176  0.5000000000000000  0.0178443183159236
  0.4883575011503296  0.0000000000000000  0.5167041731975042
 -0.0000723427866837  0.5000000000000000  0.5167128103492616
 
  0.00000000E+00  0.00000000E+00  0.00000000E+00
  0.00000000E+00  0.00000000E+00  0.00000000E+00
  0.00000000E+00  0.00000000E+00  0.00000000E+00
  0.00000000E+00  0.00000000E+00  0.00000000E+00
  0.00000000E+00  0.00000000E+00  0.00000000E+00
