Generated using phonoLAMMPS             
   1.00000000000000     
     3.9700000000000002    0.0000000000000000    0.0000000000000000
     0.0000000000000000    3.9440000000000000    0.0000000000000000
     0.0000000000000000    0.0000000000000000    3.9110151620005489
   Pb   Ti   O 
     1     1     3
Direct
  0.0709112662089923  0.0452506353698564  0.0000000000000000
  0.5439575077981229  0.5347724448943476  0.5000000000000000
  0.4910561200203730  0.5046176501346328  0.0000000000000000
  0.4921203391624148  0.0101521978929812  0.5000000000000000
  0.0019547668100982  0.5052070717081870  0.5000000000000000
 
  0.00000000E+00  0.00000000E+00  0.00000000E+00
  0.00000000E+00  0.00000000E+00  0.00000000E+00
  0.00000000E+00  0.00000000E+00  0.00000000E+00
  0.00000000E+00  0.00000000E+00  0.00000000E+00
  0.00000000E+00  0.00000000E+00  0.00000000E+00
