Generated using phonoLAMMPS             
   1.00000000000000     
     3.9700000000000002    0.0000000000000000    0.0000000000000000
     0.0000000000000000    3.9399999999999999    0.0000000000000000
     0.0000000000000000    0.0000000000000000    3.9158678624186054
   Pb   Ti   O 
     1     1     3
Direct
  0.0784563353004769  0.0000000000000000  0.0240435711201800
  0.5457013534908079  0.5000000000000000  0.5226175644000471
  0.4873398911917795  0.5000000000000000  0.0183588718488695
  0.4885881320113829  0.0000000000000000  0.5175134741243845
 -0.0000857119944085  0.5000000000000000  0.5174665185064929
 
  0.00000000E+00  0.00000000E+00  0.00000000E+00
  0.00000000E+00  0.00000000E+00  0.00000000E+00
  0.00000000E+00  0.00000000E+00  0.00000000E+00
  0.00000000E+00  0.00000000E+00  0.00000000E+00
  0.00000000E+00  0.00000000E+00  0.00000000E+00
