Generated using phonoLAMMPS             
   1.00000000000000     
     3.9640000000000000    0.0000000000000000    0.0000000000000000
     0.0000000000000000    3.9520000000000000    0.0000000000000000
     0.0000000000000000    0.0000000000000000    3.9757851038270440
   Pb   Ti   O 
     1     1     3
Direct
  0.0492247611535715  0.0000000000000000  0.0746330869323767
  0.5365463978931896  0.5000000000000000  0.5436756089349537
  0.5027991380614736  0.5000000000000000  1.0001881117897540
  0.5035628913635740  0.0000000000000000  0.4907470958902418
  0.0078668115285420  0.5000000000000000  0.4907560964530177
 
  0.00000000E+00  0.00000000E+00  0.00000000E+00
  0.00000000E+00  0.00000000E+00  0.00000000E+00
  0.00000000E+00  0.00000000E+00  0.00000000E+00
  0.00000000E+00  0.00000000E+00  0.00000000E+00
  0.00000000E+00  0.00000000E+00  0.00000000E+00
