Generated using phonoLAMMPS             
   1.00000000000000     
     3.9620000000000002    0.0000000000000000    0.0000000000000000
     0.0000000000000000    3.9319999999999999    0.0000000000000000
     0.0000000000000000    0.0000000000000000    3.9188996555951809
   Pb   Ti   O 
     1     1     3
Direct
  0.0718069624739915  0.0407736841307577  0.0000000000000000
  0.5438887803685456  0.5324194182905153  0.5000000000000000
  0.4909147058735189  0.5073851099213987  0.0000000000000000
  0.4912655699069515  0.0119608751608005  0.5000000000000000
  0.0021239813769994  0.5074609124965368  0.5000000000000000
 
  0.00000000E+00  0.00000000E+00  0.00000000E+00
  0.00000000E+00  0.00000000E+00  0.00000000E+00
  0.00000000E+00  0.00000000E+00  0.00000000E+00
  0.00000000E+00  0.00000000E+00  0.00000000E+00
  0.00000000E+00  0.00000000E+00  0.00000000E+00
