Generated using phonoLAMMPS             
   1.00000000000000     
     3.9420000000000002    0.0000000000000000    0.0000000000000000
     0.0000000000000000    3.9399999999999999    0.0000000000000000
     0.0000000000000000    0.0000000000000000    4.0423346024081734
   Pb   Ti   O 
     1     1     3
Direct
  0.0208952781686744  0.0000000000000000  0.0903666906186281
  0.5206072058605407  0.5000000000000000  0.5505134553512573
  0.5194728921022107  0.5000000000000000 -0.0073929441722443
  0.5194348737687758  0.0000000000000000  0.4832043430063046
  0.0195897500998671  0.5000000000000000  0.4833084551961212
 
  0.00000000E+00  0.00000000E+00  0.00000000E+00
  0.00000000E+00  0.00000000E+00  0.00000000E+00
  0.00000000E+00  0.00000000E+00  0.00000000E+00
  0.00000000E+00  0.00000000E+00  0.00000000E+00
  0.00000000E+00  0.00000000E+00  0.00000000E+00
