Generated using phonoLAMMPS             
   1.00000000000000     
     3.9500000000000002    0.0000000000000000    0.0000000000000000
     0.0000000000000000    3.9460000000000002    0.0000000000000000
     0.0000000000000000    0.0000000000000000    3.9414320580715816
   Pb   Ti   O 
     1     1     3
Direct
  0.0688926468313529  0.0660853179698380  0.0335522350886958
  0.5516487248371734  0.5504657543489861  0.5192562149250959
  0.5135833401091697  0.5150802931507442  0.9925970802279089
  0.5136275497344166  0.0216878050150776  0.4864737730278584
  0.0207133728758294  0.5151464639034747  0.4864952040202959
 
  0.00000000E+00  0.00000000E+00  0.00000000E+00
  0.00000000E+00  0.00000000E+00  0.00000000E+00
  0.00000000E+00  0.00000000E+00  0.00000000E+00
  0.00000000E+00  0.00000000E+00  0.00000000E+00
  0.00000000E+00  0.00000000E+00  0.00000000E+00
