Generated using phonoLAMMPS             
   1.00000000000000     
     3.9600000000000000    0.0000000000000000    0.0000000000000000
     0.0000000000000000    3.9480000000000000    0.0000000000000000
     0.0000000000000000    0.0000000000000000    3.9165967492554659
   Pb   Ti   O 
     1     1     3
Direct
  0.0777289020814132  0.0657812205335704  0.0155962112506031
  0.5552259085076545  0.5509936020217022  0.5103954251722022
  0.5084606724083673  0.5147694271299905  0.9992074007531115
  0.5091515570890167  0.0216922208379041  0.4966081127346032
  0.0178985943016834  0.5152291638649074  0.4965673573792608
 
  0.00000000E+00  0.00000000E+00  0.00000000E+00
  0.00000000E+00  0.00000000E+00  0.00000000E+00
  0.00000000E+00  0.00000000E+00  0.00000000E+00
  0.00000000E+00  0.00000000E+00  0.00000000E+00
  0.00000000E+00  0.00000000E+00  0.00000000E+00
