Generated using phonoLAMMPS             
   1.00000000000000     
     3.9620000000000002    0.0000000000000000    0.0000000000000000
     0.0000000000000000    3.9600000000000000    0.0000000000000000
     0.0000000000000000    0.0000000000000000    3.9764558204301488
   Pb   Ti   O 
     1     1     3
Direct
  0.0470167566943333  0.0000000000000000  0.0765668655570009
  0.5356281399857046  0.5000000000000000  0.5439895392234476
  0.5038989433002942  0.5000000000000000  0.9995681223439570
  0.5048662705505561  0.0000000000000000  0.4900919942858380
  0.0085898894690675  0.5000000000000000  0.4897834785896740
 
  0.00000000E+00  0.00000000E+00  0.00000000E+00
  0.00000000E+00  0.00000000E+00  0.00000000E+00
  0.00000000E+00  0.00000000E+00  0.00000000E+00
  0.00000000E+00  0.00000000E+00  0.00000000E+00
  0.00000000E+00  0.00000000E+00  0.00000000E+00
