Generated using phonoLAMMPS             
   1.00000000000000     
     3.9700000000000002    0.0000000000000000    0.0000000000000000
     0.0000000000000000    3.9600000000000000    0.0000000000000000
     0.0000000000000000    0.0000000000000000    3.9040558957024682
   Pb   Ti   O 
     1     1     3
Direct
  0.0645755817751210  0.0555456584856383  0.0000000000000000
  0.5422333433690483  0.5390841601079081  0.5000000000000000
  0.4940714781343380  0.4988169644041163  0.0000000000000000
  0.4955146914552797  0.0065189253449354  0.5000000000000000
  0.0036049052662019  0.5000342916574110  0.5000000000000000
 
  0.00000000E+00  0.00000000E+00  0.00000000E+00
  0.00000000E+00  0.00000000E+00  0.00000000E+00
  0.00000000E+00  0.00000000E+00  0.00000000E+00
  0.00000000E+00  0.00000000E+00  0.00000000E+00
  0.00000000E+00  0.00000000E+00  0.00000000E+00
