Generated using phonoLAMMPS             
   1.00000000000000     
     3.9600000000000000    0.0000000000000000    0.0000000000000000
     0.0000000000000000    3.9440000000000000    0.0000000000000000
     0.0000000000000000    0.0000000000000000    3.9220249890468266
   Pb   Ti   O 
     1     1     3
Direct
  0.0781609378395366  0.0633234577423997  0.0199993633442697
  0.5552749564713456  0.5498200910386938  0.5128284345797581
  0.5083840157935831  0.5162256480599793  0.9975421707715992
  0.5088722365245053  0.0225687433395568  0.4940201914854871
  0.0177734877591095  0.5165276942074667  0.4939843471087559
 
  0.00000000E+00  0.00000000E+00  0.00000000E+00
  0.00000000E+00  0.00000000E+00  0.00000000E+00
  0.00000000E+00  0.00000000E+00  0.00000000E+00
  0.00000000E+00  0.00000000E+00  0.00000000E+00
  0.00000000E+00  0.00000000E+00  0.00000000E+00
