Generated using phonoLAMMPS             
   1.00000000000000     
     3.9560000000000000    0.0000000000000000    0.0000000000000000
     0.0000000000000000    3.9460000000000002    0.0000000000000000
     0.0000000000000000    0.0000000000000000    4.0117519918902014
   Pb   Ti   O 
     1     1     3
Direct
  0.0348367960175165  0.0000000000000000  0.0851913154333660
  0.5298144896221583  0.5000000000000000  0.5478121597521298
  0.5111785362457881  0.5000000000000000 -0.0044981250057318
  0.5110027793135860  0.0000000000000000  0.4855770957998671
  0.0131673988009259  0.5000000000000000  0.4859175540204286
 
  0.00000000E+00  0.00000000E+00  0.00000000E+00
  0.00000000E+00  0.00000000E+00  0.00000000E+00
  0.00000000E+00  0.00000000E+00  0.00000000E+00
  0.00000000E+00  0.00000000E+00  0.00000000E+00
  0.00000000E+00  0.00000000E+00  0.00000000E+00
