Generated using phonoLAMMPS             
   1.00000000000000     
     3.9620000000000002    0.0000000000000000    0.0000000000000000
     0.0000000000000000    3.9560000000000000    0.0000000000000000
     0.0000000000000000    0.0000000000000000    3.9114682870437729
   Pb   Ti   O 
     1     1     3
Direct
  0.0783985061152625  0.0000000000000000  0.0214135227990914
  0.5450941369572785  0.5000000000000000  0.5208710756146059
  0.4870554625980529  0.5000000000000000  0.0194521113429974
  0.4892294623087976  0.0000000000000000  0.5191418723960989
  0.0002224320208091  0.5000000000000000  0.5191214178474071
 
  0.00000000E+00  0.00000000E+00  0.00000000E+00
  0.00000000E+00  0.00000000E+00  0.00000000E+00
  0.00000000E+00  0.00000000E+00  0.00000000E+00
  0.00000000E+00  0.00000000E+00  0.00000000E+00
  0.00000000E+00  0.00000000E+00  0.00000000E+00
