Generated using phonoLAMMPS             
   1.00000000000000     
     3.9620000000000002    0.0000000000000000    0.0000000000000000
     0.0000000000000000    3.9560000000000000    0.0000000000000000
     0.0000000000000000    0.0000000000000000    3.9787749349970909
   Pb   Ti   O 
     1     1     3
Direct
  0.0469155956946390  0.0000000000000000  0.0765620777989158
  0.5356084081127686  0.5000000000000000  0.5441813646608851
  0.5040075898348945  0.5000000000000000  0.9994790762610170
  0.5048212229576192  0.0000000000000000  0.4899661799356241
  0.0086471834002795  0.5000000000000000  0.4898113013437549
 
  0.00000000E+00  0.00000000E+00  0.00000000E+00
  0.00000000E+00  0.00000000E+00  0.00000000E+00
  0.00000000E+00  0.00000000E+00  0.00000000E+00
  0.00000000E+00  0.00000000E+00  0.00000000E+00
  0.00000000E+00  0.00000000E+00  0.00000000E+00
