Generated using phonoLAMMPS             
   1.00000000000000     
     3.9660000000000002    0.0000000000000000    0.0000000000000000
     0.0000000000000000    3.9520000000000000    0.0000000000000000
     0.0000000000000000    0.0000000000000000    3.9802192991292284
   Pb   Ti   O 
     1     1     3
Direct
  0.0465106647378095  0.0000000000000000  0.0771132039215711
  0.5357334251254076  0.5000000000000000  0.5443686613681145
  0.5042559285969501  0.5000000000000000  0.9992726446078001
  0.5049080436356871  0.0000000000000000  0.4894916583861820
  0.0085919379041707  0.5000000000000000  0.4897538317174739
 
  0.00000000E+00  0.00000000E+00  0.00000000E+00
  0.00000000E+00  0.00000000E+00  0.00000000E+00
  0.00000000E+00  0.00000000E+00  0.00000000E+00
  0.00000000E+00  0.00000000E+00  0.00000000E+00
  0.00000000E+00  0.00000000E+00  0.00000000E+00
