Generated using phonoLAMMPS             
   1.00000000000000     
     3.9620000000000002    0.0000000000000000    0.0000000000000000
     0.0000000000000000    3.9420000000000002    0.0000000000000000
     0.0000000000000000    0.0000000000000000    3.9204562969020582
   Pb   Ti   O 
     1     1     3
Direct
  0.0802902292814991  0.0612466298199300  0.0179631827700468
  0.5560138402577789  0.5490420541843064  0.5118036111649674
  0.5072428375959661  0.5173109146495949  0.9982761316511974
  0.5077885552853377  0.0232545616527353  0.4951880443837006
  0.0171301719676119  0.5176114740815434  0.4951435373199929
 
  0.00000000E+00  0.00000000E+00  0.00000000E+00
  0.00000000E+00  0.00000000E+00  0.00000000E+00
  0.00000000E+00  0.00000000E+00  0.00000000E+00
  0.00000000E+00  0.00000000E+00  0.00000000E+00
  0.00000000E+00  0.00000000E+00  0.00000000E+00
