Generated using phonoLAMMPS             
   1.00000000000000     
     3.9500000000000002    0.0000000000000000    0.0000000000000000
     0.0000000000000000    3.9480000000000000    0.0000000000000000
     0.0000000000000000    0.0000000000000000    3.9371782370314472
   Pb   Ti   O 
     1     1     3
Direct
  0.0691614535934370  0.0676248846041981  0.0310471395892385
  0.5517810354500535  0.5511650012618826  0.5181223988866500
  0.5133709465243391  0.5141868198134684  0.9935186876115217
  0.5135089693361206  0.0211645096554827  0.4878414988401165
  0.0206432294841688  0.5143244190530712  0.4878447823623174
 
  0.00000000E+00  0.00000000E+00  0.00000000E+00
  0.00000000E+00  0.00000000E+00  0.00000000E+00
  0.00000000E+00  0.00000000E+00  0.00000000E+00
  0.00000000E+00  0.00000000E+00  0.00000000E+00
  0.00000000E+00  0.00000000E+00  0.00000000E+00
