Generated using phonoLAMMPS             
   1.00000000000000     
     3.9700000000000002    0.0000000000000000    0.0000000000000000
     0.0000000000000000    3.9660000000000002    0.0000000000000000
     0.0000000000000000    0.0000000000000000    3.9016593863675064
   Pb   Ti   O 
     1     1     3
Direct
  0.0621914346868186  0.0587771978300294  0.0000000000000000
  0.5415559979484386  0.5403533409652160  0.5000000000000000
  0.4952535914650674  0.4970537514790808  0.0000000000000000
  0.4967527912647652  0.0053586292742099  0.5000000000000000
  0.0042461846349225  0.4984570804514656  0.5000000000000000
 
  0.00000000E+00  0.00000000E+00  0.00000000E+00
  0.00000000E+00  0.00000000E+00  0.00000000E+00
  0.00000000E+00  0.00000000E+00  0.00000000E+00
  0.00000000E+00  0.00000000E+00  0.00000000E+00
  0.00000000E+00  0.00000000E+00  0.00000000E+00
