Generated using phonoLAMMPS             
   1.00000000000000     
     3.9660000000000002    0.0000000000000000    0.0000000000000000
     0.0000000000000000    3.9480000000000000    0.0000000000000000
     0.0000000000000000    0.0000000000000000    3.9103576488660128
   Pb   Ti   O 
     1     1     3
Direct
  0.0680933841825146  0.0492034558682561  0.0000000000000000
  0.5430143295170876  0.5364608786346321  0.5000000000000000
  0.4924848803188135  0.5024532341360278  0.0000000000000000
  0.4935333008310703  0.0088199951039991  0.5000000000000000
  0.0028741051505036  0.5030624362570333  0.5000000000000000
 
  0.00000000E+00  0.00000000E+00  0.00000000E+00
  0.00000000E+00  0.00000000E+00  0.00000000E+00
  0.00000000E+00  0.00000000E+00  0.00000000E+00
  0.00000000E+00  0.00000000E+00  0.00000000E+00
  0.00000000E+00  0.00000000E+00  0.00000000E+00
