Generated using phonoLAMMPS             
   1.00000000000000     
     3.9440000000000000    0.0000000000000000    0.0000000000000000
     0.0000000000000000    3.9340000000000002    0.0000000000000000
     0.0000000000000000    0.0000000000000000    4.0455449395437890
   Pb   Ti   O 
     1     1     3
Direct
  0.0000000000000000  0.0000000000000000  0.0944324367411309
  0.5000000000000000  0.5000000000000000  0.5547718929053744
  0.5000000000000000  0.5000000000000000 -0.0035285883828266
  0.5000000000000000  0.0000000000000000  0.4869352071175964
  0.0000000000000000  0.5000000000000000  0.4873890516187223
 
  0.00000000E+00  0.00000000E+00  0.00000000E+00
  0.00000000E+00  0.00000000E+00  0.00000000E+00
  0.00000000E+00  0.00000000E+00  0.00000000E+00
  0.00000000E+00  0.00000000E+00  0.00000000E+00
  0.00000000E+00  0.00000000E+00  0.00000000E+00
