Generated using phonoLAMMPS             
   1.00000000000000     
     3.9380000000000002    0.0000000000000000    0.0000000000000000
     0.0000000000000000    3.9359999999999999    0.0000000000000000
     0.0000000000000000    0.0000000000000000    4.0486463905486110
   Pb   Ti   O 
     1     1     3
Direct
  0.0205404155842841  0.0000000000000000  0.0905386408717924
  0.5203099295937291  0.5000000000000000  0.5509848871389337
  0.5196996328505672  0.5000000000000000 -0.0076909900351073
  0.5196764395255967  0.0000000000000000  0.4830247410272704
  0.0197735824458937  0.5000000000000000  0.4831427209969953
 
  0.00000000E+00  0.00000000E+00  0.00000000E+00
  0.00000000E+00  0.00000000E+00  0.00000000E+00
  0.00000000E+00  0.00000000E+00  0.00000000E+00
  0.00000000E+00  0.00000000E+00  0.00000000E+00
  0.00000000E+00  0.00000000E+00  0.00000000E+00
