Generated using phonoLAMMPS             
   1.00000000000000     
     3.9620000000000002    0.0000000000000000    0.0000000000000000
     0.0000000000000000    3.9399999999999999    0.0000000000000000
     0.0000000000000000    0.0000000000000000    3.9151848797910640
   Pb   Ti   O 
     1     1     3
Direct
  0.0693271690621251  0.0459890408147291  0.0000000000000000
  0.5431933057898889  0.5349017167085094  0.5000000000000000
  0.4920230290215651  0.5043742257341732  0.0000000000000000
  0.4927027140649491  0.0100760622106564  0.5000000000000000
  0.0027537820614730  0.5046589545319359  0.5000000000000000
 
  0.00000000E+00  0.00000000E+00  0.00000000E+00
  0.00000000E+00  0.00000000E+00  0.00000000E+00
  0.00000000E+00  0.00000000E+00  0.00000000E+00
  0.00000000E+00  0.00000000E+00  0.00000000E+00
  0.00000000E+00  0.00000000E+00  0.00000000E+00
