Generated using phonoLAMMPS             
   1.00000000000000     
     3.9560000000000000    0.0000000000000000    0.0000000000000000
     0.0000000000000000    3.9480000000000000    0.0000000000000000
     0.0000000000000000    0.0000000000000000    3.9579245377085734
   Pb   Ti   O 
     1     1     3
Direct
  0.0604978957256906  0.0000000000000000  0.0617809119439293
  0.5396372440454746  0.5000000000000000  0.5401257422041096
  0.4970028927537088  0.5000000000000000  0.0046300688379523
  0.4977914328601455  0.0000000000000000  0.4971305796752102
  0.0050705346149810  0.5000000000000000  0.4963326973388005
 
  0.00000000E+00  0.00000000E+00  0.00000000E+00
  0.00000000E+00  0.00000000E+00  0.00000000E+00
  0.00000000E+00  0.00000000E+00  0.00000000E+00
  0.00000000E+00  0.00000000E+00  0.00000000E+00
  0.00000000E+00  0.00000000E+00  0.00000000E+00
