Generated using phonoLAMMPS             
   1.00000000000000     
     3.9420000000000002    0.0000000000000000    0.0000000000000000
     0.0000000000000000    3.9340000000000002    0.0000000000000000
     0.0000000000000000    0.0000000000000000    4.0473528930369032
   Pb   Ti   O 
     1     1     3
Direct
  0.0000000000000000  0.0000000000000000  0.0945382190912807
  0.5000000000000000  0.5000000000000000  0.5548877703058569
  0.5000000000000000  0.5000000000000000 -0.0036495360845495
  0.5000000000000000  0.0000000000000000  0.4869145880965914
  0.0000000000000000  0.5000000000000000  0.4873089585908154
 
  0.00000000E+00  0.00000000E+00  0.00000000E+00
  0.00000000E+00  0.00000000E+00  0.00000000E+00
  0.00000000E+00  0.00000000E+00  0.00000000E+00
  0.00000000E+00  0.00000000E+00  0.00000000E+00
  0.00000000E+00  0.00000000E+00  0.00000000E+00
