Generated using phonoLAMMPS             
   1.00000000000000     
     3.9359999999999999    0.0000000000000000    0.0000000000000000
     0.0000000000000000    3.9319999999999999    0.0000000000000000
     0.0000000000000000    0.0000000000000000    4.0542992178258777
   Pb   Ti   O 
     1     1     3
Direct
  0.0000000000000000  0.0000000000000000  0.0948455298503940
  0.5000000000000000  0.5000000000000000  0.5554079147278013
  0.5000000000000000  0.5000000000000000 -0.0040115480492526
  0.5000000000000000  0.0000000000000000  0.4867803136790065
  0.0000000000000000  0.5000000000000000  0.4869777897920475
 
  0.00000000E+00  0.00000000E+00  0.00000000E+00
  0.00000000E+00  0.00000000E+00  0.00000000E+00
  0.00000000E+00  0.00000000E+00  0.00000000E+00
  0.00000000E+00  0.00000000E+00  0.00000000E+00
  0.00000000E+00  0.00000000E+00  0.00000000E+00
