Generated using phonoLAMMPS             
   1.00000000000000     
     3.9640000000000000    0.0000000000000000    0.0000000000000000
     0.0000000000000000    3.9460000000000002    0.0000000000000000
     0.0000000000000000    0.0000000000000000    3.9137308268183593
   Pb   Ti   O 
     1     1     3
Direct
  0.0811826686099214  0.0626146009417778  0.0111060909053940
  0.5564171503413653  0.5498958658887664  0.5079491006464988
  0.5065994179647052  0.5163955100845738  1.0008697899563119
  0.5074521772469620  0.0226798065311687  0.4992464341091458
  0.0168142202251209  0.5168798509418181  0.4992030916724895
 
  0.00000000E+00  0.00000000E+00  0.00000000E+00
  0.00000000E+00  0.00000000E+00  0.00000000E+00
  0.00000000E+00  0.00000000E+00  0.00000000E+00
  0.00000000E+00  0.00000000E+00  0.00000000E+00
  0.00000000E+00  0.00000000E+00  0.00000000E+00
