Generated using phonoLAMMPS             
   1.00000000000000     
     3.9480000000000000    0.0000000000000000    0.0000000000000000
     0.0000000000000000    3.9399999999999999    0.0000000000000000
     0.0000000000000000    0.0000000000000000    4.0369054068405488
   Pb   Ti   O 
     1     1     3
Direct
  0.0203543913987008  0.0000000000000000  0.0901119525430414
  0.5202985104983534  0.5000000000000000  0.5501101367196838
  0.5197833948951947  0.5000000000000000 -0.0070899770465226
  0.5197585070240351  0.0000000000000000  0.4832168825651452
  0.0198051961837011  0.5000000000000000  0.4836510052186497
 
  0.00000000E+00  0.00000000E+00  0.00000000E+00
  0.00000000E+00  0.00000000E+00  0.00000000E+00
  0.00000000E+00  0.00000000E+00  0.00000000E+00
  0.00000000E+00  0.00000000E+00  0.00000000E+00
  0.00000000E+00  0.00000000E+00  0.00000000E+00
