Generated using phonoLAMMPS             
   1.00000000000000     
     3.9700000000000002    0.0000000000000000    0.0000000000000000
     0.0000000000000000    3.9380000000000002    0.0000000000000000
     0.0000000000000000    0.0000000000000000    3.9147624804478203
   Pb   Ti   O 
     1     1     3
Direct
  0.0865507674925797  0.0545023051047543  0.0084816517018932
  0.5581417164809346  0.5463580240810454  0.5065681326613063
  0.5039037382883728  0.5208793559177595  1.0018152776855971
  0.5047258051038065  0.0254403636326413  0.5007602431089768
  0.0151436070223844  0.5212855856519512  0.5007492021320520
 
  0.00000000E+00  0.00000000E+00  0.00000000E+00
  0.00000000E+00  0.00000000E+00  0.00000000E+00
  0.00000000E+00  0.00000000E+00  0.00000000E+00
  0.00000000E+00  0.00000000E+00  0.00000000E+00
  0.00000000E+00  0.00000000E+00  0.00000000E+00
