Generated using phonoLAMMPS             
   1.00000000000000     
     3.9600000000000000    0.0000000000000000    0.0000000000000000
     0.0000000000000000    3.9319999999999999    0.0000000000000000
     0.0000000000000000    0.0000000000000000    3.9194853060476933
   Pb   Ti   O 
     1     1     3
Direct
  0.0709819008325879  0.0419704960074806  0.0000000000000000
  0.5435849103819889  0.5329386595145522  0.5000000000000000
  0.4913859484933571  0.5067128211456164  0.0000000000000000
  0.4916136391744613  0.0115863985716103  0.5000000000000000
  0.0024336011176056  0.5067916247607344  0.5000000000000000
 
  0.00000000E+00  0.00000000E+00  0.00000000E+00
  0.00000000E+00  0.00000000E+00  0.00000000E+00
  0.00000000E+00  0.00000000E+00  0.00000000E+00
  0.00000000E+00  0.00000000E+00  0.00000000E+00
  0.00000000E+00  0.00000000E+00  0.00000000E+00
