Generated using phonoLAMMPS             
   1.00000000000000     
     3.9540000000000002    0.0000000000000000    0.0000000000000000
     0.0000000000000000    3.9540000000000002    0.0000000000000000
     0.0000000000000000    0.0000000000000000    4.0220996884123466
   Pb   Ti   O 
     1     1     3
Direct
 -0.0000000000000000 -0.0000000000000000  0.0937845398300293
  0.5000000000000000  0.5000000000000000  0.5529741674956956
  0.5000000000000000  0.5000000000000000 -0.0024209162200800
  0.5000000000000000 -0.0000000000000000  0.4878311044471791
  0.0000000000000000  0.5000000000000000  0.4878311044471791
 
  0.00000000E+00  0.00000000E+00  0.00000000E+00
  0.00000000E+00  0.00000000E+00  0.00000000E+00
  0.00000000E+00  0.00000000E+00  0.00000000E+00
  0.00000000E+00  0.00000000E+00  0.00000000E+00
  0.00000000E+00  0.00000000E+00  0.00000000E+00
