Generated using phonoLAMMPS             
   1.00000000000000     
     3.9500000000000002    0.0000000000000000    0.0000000000000000
     0.0000000000000000    3.9380000000000002    0.0000000000000000
     0.0000000000000000    0.0000000000000000    4.0375930584848776
   Pb   Ti   O 
     1     1     3
Direct
  0.0000000000000000  0.0000000000000000  0.0942477760586044
  0.5000000000000000  0.5000000000000000  0.5541607630903251
  0.5000000000000000  0.5000000000000000 -0.0031642579347252
  0.5000000000000000  0.0000000000000000  0.4870676185765078
  0.0000000000000000  0.5000000000000000  0.4876881002092868
 
  0.00000000E+00  0.00000000E+00  0.00000000E+00
  0.00000000E+00  0.00000000E+00  0.00000000E+00
  0.00000000E+00  0.00000000E+00  0.00000000E+00
  0.00000000E+00  0.00000000E+00  0.00000000E+00
  0.00000000E+00  0.00000000E+00  0.00000000E+00
