Generated using phonoLAMMPS             
   1.00000000000000     
     3.9399999999999999    0.0000000000000000    0.0000000000000000
     0.0000000000000000    3.9319999999999999    0.0000000000000000
     0.0000000000000000    0.0000000000000000    4.0504404769139910
   Pb   Ti   O 
     1     1     3
Direct
  0.0204690233823456  0.0000000000000000  0.0906050732751550
  0.5203070400550296  0.5000000000000000  0.5511278741541090
  0.5197157385020668  0.5000000000000000 -0.0077782576457290
  0.5197154124146172  0.0000000000000000  0.4828100324057772
  0.0197927856459574  0.5000000000000000  0.4832352778106984
 
  0.00000000E+00  0.00000000E+00  0.00000000E+00
  0.00000000E+00  0.00000000E+00  0.00000000E+00
  0.00000000E+00  0.00000000E+00  0.00000000E+00
  0.00000000E+00  0.00000000E+00  0.00000000E+00
  0.00000000E+00  0.00000000E+00  0.00000000E+00
