Generated using phonoLAMMPS             
   1.00000000000000     
     3.9540000000000002    0.0000000000000000    0.0000000000000000
     0.0000000000000000    3.9520000000000000    0.0000000000000000
     0.0000000000000000    0.0000000000000000    3.9126579973208342
   Pb   Ti   O 
     1     1     3
Direct
  0.0593122683236841  0.0585333018918114  0.0000000000000000
  0.5400462500468206  0.5396676234763625  0.5000000000000000
  0.4971733845284954  0.4975732953081578  0.0000000000000000
  0.4977210243737875  0.0060490210040106  0.5000000000000000
  0.0057470727272274  0.4981767583196577  0.5000000000000000
 
  0.00000000E+00  0.00000000E+00  0.00000000E+00
  0.00000000E+00  0.00000000E+00  0.00000000E+00
  0.00000000E+00  0.00000000E+00  0.00000000E+00
  0.00000000E+00  0.00000000E+00  0.00000000E+00
  0.00000000E+00  0.00000000E+00  0.00000000E+00
