Generated using phonoLAMMPS             
   1.00000000000000     
     3.9540000000000002    0.0000000000000000    0.0000000000000000
     0.0000000000000000    3.9500000000000002    0.0000000000000000
     0.0000000000000000    0.0000000000000000    3.9717746603015058
   Pb   Ti   O 
     1     1     3
Direct
  0.0540325109112389  0.0000000000000000  0.0692794975760310
  0.5374161020483980  0.5000000000000000  0.5426477683167515
  0.5004778775253111  0.5000000000000000  0.0018911622684322
  0.5011023717672269  0.0000000000000000  0.4934544604196128
  0.0069711377478196  0.5000000000000000  0.4927271114191454
 
  0.00000000E+00  0.00000000E+00  0.00000000E+00
  0.00000000E+00  0.00000000E+00  0.00000000E+00
  0.00000000E+00  0.00000000E+00  0.00000000E+00
  0.00000000E+00  0.00000000E+00  0.00000000E+00
  0.00000000E+00  0.00000000E+00  0.00000000E+00
