Generated using phonoLAMMPS             
   1.00000000000000     
     3.9640000000000000    0.0000000000000000    0.0000000000000000
     0.0000000000000000    3.9500000000000002    0.0000000000000000
     0.0000000000000000    0.0000000000000000    3.9108302628761598
   Pb   Ti   O 
     1     1     3
Direct
  0.0799284204668124  0.0651179344002474  0.0082916448770826
  0.5560929543969650  0.5509945217271839  0.5062882519039756
  0.5071536245108046  0.5149648540429977  1.0019537281635462
  0.5081466312513720  0.0217943995913145  0.5009323510462200
  0.0171440037622617  0.5155939246262994  0.5009085312990481
 
  0.00000000E+00  0.00000000E+00  0.00000000E+00
  0.00000000E+00  0.00000000E+00  0.00000000E+00
  0.00000000E+00  0.00000000E+00  0.00000000E+00
  0.00000000E+00  0.00000000E+00  0.00000000E+00
  0.00000000E+00  0.00000000E+00  0.00000000E+00
