Generated using phonoLAMMPS             
   1.00000000000000     
     3.9660000000000002    0.0000000000000000    0.0000000000000000
     0.0000000000000000    3.9560000000000000    0.0000000000000000
     0.0000000000000000    0.0000000000000000    3.9107040619842444
   Pb   Ti   O 
     1     1     3
Direct
  0.0788895109872978  0.0000000000000000  0.0223494250665000
  0.5453923553651994  0.5000000000000000  0.5214554485792041
  0.4867826506875790  0.5000000000000000  0.0190737106646411
  0.4890370981006070  0.0000000000000000  0.5186097576245855
 -0.0001016151406613  0.5000000000000000  0.5185116580650468
 
  0.00000000E+00  0.00000000E+00  0.00000000E+00
  0.00000000E+00  0.00000000E+00  0.00000000E+00
  0.00000000E+00  0.00000000E+00  0.00000000E+00
  0.00000000E+00  0.00000000E+00  0.00000000E+00
  0.00000000E+00  0.00000000E+00  0.00000000E+00
