Generated using phonoLAMMPS             
   1.00000000000000     
     3.9660000000000002    0.0000000000000000    0.0000000000000000
     0.0000000000000000    3.9380000000000002    0.0000000000000000
     0.0000000000000000    0.0000000000000000    4.0255939901451026
   Pb   Ti   O 
     1     1     3
Direct
  0.0000000000000000  0.0000000000000000  0.0939482671339319
  0.5000000000000000  0.5000000000000000  0.5532541697659471
  0.5000000000000000  0.5000000000000000 -0.0026077519703060
  0.5000000000000000  0.0000000000000000  0.4870475166512360
  0.0000000000000000  0.5000000000000000  0.4883577984191841
 
  0.00000000E+00  0.00000000E+00  0.00000000E+00
  0.00000000E+00  0.00000000E+00  0.00000000E+00
  0.00000000E+00  0.00000000E+00  0.00000000E+00
  0.00000000E+00  0.00000000E+00  0.00000000E+00
  0.00000000E+00  0.00000000E+00  0.00000000E+00
