Generated using phonoLAMMPS             
   1.00000000000000     
     3.9580000000000002    0.0000000000000000    0.0000000000000000
     0.0000000000000000    3.9399999999999999    0.0000000000000000
     0.0000000000000000    0.0000000000000000    3.9162041301604193
   Pb   Ti   O 
     1     1     3
Direct
  0.0670526490534479  0.0485708400570883  0.0000000000000000
  0.5424350840060487  0.5358646813804482  0.5000000000000000
  0.4932603800664022  0.5029923821538095  0.0000000000000000
  0.4937209451787189  0.0093202474217190  0.5000000000000000
  0.0035309416953891  0.5032518489869279  0.5000000000000000
 
  0.00000000E+00  0.00000000E+00  0.00000000E+00
  0.00000000E+00  0.00000000E+00  0.00000000E+00
  0.00000000E+00  0.00000000E+00  0.00000000E+00
  0.00000000E+00  0.00000000E+00  0.00000000E+00
  0.00000000E+00  0.00000000E+00  0.00000000E+00
