Generated using phonoLAMMPS             
   1.00000000000000     
     3.9560000000000000    0.0000000000000000    0.0000000000000000
     0.0000000000000000    3.9399999999999999    0.0000000000000000
     0.0000000000000000    0.0000000000000000    3.9169240583492315
   Pb   Ti   O 
     1     1     3
Direct
  0.0660515966295535  0.0496994448328067  0.0000000000000000
  0.5420754305646437  0.5362663222472872  0.5000000000000000
  0.4938090081787378  0.5024179295017388  0.0000000000000000
  0.4941808665877833  0.0089994933499298  0.5000000000000000
  0.0038830980392760  0.5026168100682477  0.5000000000000000
 
  0.00000000E+00  0.00000000E+00  0.00000000E+00
  0.00000000E+00  0.00000000E+00  0.00000000E+00
  0.00000000E+00  0.00000000E+00  0.00000000E+00
  0.00000000E+00  0.00000000E+00  0.00000000E+00
  0.00000000E+00  0.00000000E+00  0.00000000E+00
