Generated using phonoLAMMPS             
   1.00000000000000     
     3.9680000000000000    0.0000000000000000    0.0000000000000000
     0.0000000000000000    3.9640000000000000    0.0000000000000000
     0.0000000000000000    0.0000000000000000    3.9067749218497076
   Pb   Ti   O 
     1     1     3
Direct
  0.0795616039453347  0.0000000000000000  0.0211036547441078
  0.5455504014180270  0.5000000000000000  0.5206234018466186
  0.4862358381190289  0.5000000000000000  0.0195792764977434
  0.4890698387489492  0.0000000000000000  0.5193625300397985
 -0.0004176822313202  0.5000000000000000  0.5193311368717544
 
  0.00000000E+00  0.00000000E+00  0.00000000E+00
  0.00000000E+00  0.00000000E+00  0.00000000E+00
  0.00000000E+00  0.00000000E+00  0.00000000E+00
  0.00000000E+00  0.00000000E+00  0.00000000E+00
  0.00000000E+00  0.00000000E+00  0.00000000E+00
