Generated using phonoLAMMPS             
   1.00000000000000     
     3.9640000000000000    0.0000000000000000    0.0000000000000000
     0.0000000000000000    3.9540000000000002    0.0000000000000000
     0.0000000000000000    0.0000000000000000    3.9089546230488845
   Pb   Ti   O 
     1     1     3
Direct
  0.0783177660016753  0.0676647138034881  0.0072640431030261
  0.5556510789328678  0.5520250003990216  0.5056404866832878
  0.5079263331219247  0.5135451067716608  1.0023604934963357
  0.5090022993291117  0.0209066379318936  0.5015611933509897
  0.0175681570025339  0.5143241754820831  0.5015482906561993
 
  0.00000000E+00  0.00000000E+00  0.00000000E+00
  0.00000000E+00  0.00000000E+00  0.00000000E+00
  0.00000000E+00  0.00000000E+00  0.00000000E+00
  0.00000000E+00  0.00000000E+00  0.00000000E+00
  0.00000000E+00  0.00000000E+00  0.00000000E+00
