Generated using phonoLAMMPS             
   1.00000000000000     
     3.9680000000000000    0.0000000000000000    0.0000000000000000
     0.0000000000000000    3.9340000000000002    0.0000000000000000
     0.0000000000000000    0.0000000000000000    4.0273936347977042
   Pb   Ti   O 
     1     1     3
Direct
  0.0000000000000000  0.0000000000000000  0.0940270505122460
  0.5000000000000000  0.5000000000000000  0.5533963042407257
  0.5000000000000000  0.5000000000000000 -0.0027069103070943
  0.5000000000000000  0.0000000000000000  0.4868039919278067
  0.0000000000000000  0.5000000000000000  0.4884795636263050
 
  0.00000000E+00  0.00000000E+00  0.00000000E+00
  0.00000000E+00  0.00000000E+00  0.00000000E+00
  0.00000000E+00  0.00000000E+00  0.00000000E+00
  0.00000000E+00  0.00000000E+00  0.00000000E+00
  0.00000000E+00  0.00000000E+00  0.00000000E+00
