Generated using phonoLAMMPS             
   1.00000000000000     
     3.9640000000000000    0.0000000000000000    0.0000000000000000
     0.0000000000000000    3.9480000000000000    0.0000000000000000
     0.0000000000000000    0.0000000000000000    3.9109860752835885
   Pb   Ti   O 
     1     1     3
Direct
  0.0667568270964890  0.0507650752284439  0.0000000000000000
  0.5425835250373003  0.5369926735279676  0.5000000000000000
  0.4932079596809693  0.5016386625509043  0.0000000000000000
  0.4941322439228581  0.0083745845569701  0.5000000000000000
  0.0033194442623305  0.5022290041357120  0.5000000000000000
 
  0.00000000E+00  0.00000000E+00  0.00000000E+00
  0.00000000E+00  0.00000000E+00  0.00000000E+00
  0.00000000E+00  0.00000000E+00  0.00000000E+00
  0.00000000E+00  0.00000000E+00  0.00000000E+00
  0.00000000E+00  0.00000000E+00  0.00000000E+00
