Generated using phonoLAMMPS             
   1.00000000000000     
     3.9580000000000002    0.0000000000000000    0.0000000000000000
     0.0000000000000000    3.9359999999999999    0.0000000000000000
     0.0000000000000000    0.0000000000000000    4.0289598934122433
   Pb   Ti   O 
     1     1     3
Direct
  0.0271378844971109  0.0000000000000000  0.0888847934441815
  0.5253890283908371  0.5000000000000000  0.5494275955026779
  0.5157643605558729  0.5000000000000000 -0.0063750179103915
  0.5153332794036827  0.0000000000000000  0.4834775249563428
  0.0163754471525423  0.5000000000000000  0.4845851040071691
 
  0.00000000E+00  0.00000000E+00  0.00000000E+00
  0.00000000E+00  0.00000000E+00  0.00000000E+00
  0.00000000E+00  0.00000000E+00  0.00000000E+00
  0.00000000E+00  0.00000000E+00  0.00000000E+00
  0.00000000E+00  0.00000000E+00  0.00000000E+00
