Generated using phonoLAMMPS             
   1.00000000000000     
     3.9720000000000000    0.0000000000000000    0.0000000000000000
     0.0000000000000000    3.9640000000000000    0.0000000000000000
     0.0000000000000000    0.0000000000000000    3.9018510669931366
   Pb   Ti   O 
     1     1     3
Direct
  0.0782301800486740  0.0699264401407608  0.0044113849506660
  0.5559720369519949  0.5532016134819623  0.5040680365590632
  0.5077067642286653  0.5120837893075669  1.0034133432821111
  0.5093422840058407  0.0198426558499739  0.5032413614783814
  0.0172143691530678  0.5134111356079157  0.5032403810196138
 
  0.00000000E+00  0.00000000E+00  0.00000000E+00
  0.00000000E+00  0.00000000E+00  0.00000000E+00
  0.00000000E+00  0.00000000E+00  0.00000000E+00
  0.00000000E+00  0.00000000E+00  0.00000000E+00
  0.00000000E+00  0.00000000E+00  0.00000000E+00
