Generated using phonoLAMMPS             
   1.00000000000000     
     3.9500000000000002    0.0000000000000000    0.0000000000000000
     0.0000000000000000    3.9420000000000002    0.0000000000000000
     0.0000000000000000    0.0000000000000000    4.0342422446867641
   Pb   Ti   O 
     1     1     3
Direct
  0.0000000000000000  0.0000000000000000  0.0940467602766945
  0.5000000000000000  0.5000000000000000  0.5539139465700494
  0.5000000000000000  0.5000000000000000 -0.0029721446880368
  0.5000000000000000  0.0000000000000000  0.4873094580240348
  0.0000000000000000  0.5000000000000000  0.4877019798172534
 
  0.00000000E+00  0.00000000E+00  0.00000000E+00
  0.00000000E+00  0.00000000E+00  0.00000000E+00
  0.00000000E+00  0.00000000E+00  0.00000000E+00
  0.00000000E+00  0.00000000E+00  0.00000000E+00
  0.00000000E+00  0.00000000E+00  0.00000000E+00
