Generated using phonoLAMMPS             
   1.00000000000000     
     3.9620000000000002    0.0000000000000000    0.0000000000000000
     0.0000000000000000    3.9460000000000002    0.0000000000000000
     0.0000000000000000    0.0000000000000000    3.9154904960616146
   Pb   Ti   O 
     1     1     3
Direct
  0.0798438031390258  0.0636294838384236  0.0136206876018830
  0.5559402882449622  0.5502130098502110  0.5093482897815310
  0.5073348785826421  0.5158916670939703  0.9999274989771787
  0.5080933396654694  0.0223880338167533  0.4977603366047969
  0.0172533247560327  0.5163434397887302  0.4977176943244145
 
  0.00000000E+00  0.00000000E+00  0.00000000E+00
  0.00000000E+00  0.00000000E+00  0.00000000E+00
  0.00000000E+00  0.00000000E+00  0.00000000E+00
  0.00000000E+00  0.00000000E+00  0.00000000E+00
  0.00000000E+00  0.00000000E+00  0.00000000E+00
