Generated using phonoLAMMPS             
   1.00000000000000     
     3.9720000000000000    0.0000000000000000    0.0000000000000000
     0.0000000000000000    3.9580000000000002    0.0000000000000000
     0.0000000000000000    0.0000000000000000    3.9078033596763020
   Pb   Ti   O 
     1     1     3
Direct
  0.0797379352604466  0.0000000000000000  0.0204656625429000
  0.5458678297586738  0.5000000000000000  0.5202714888705428
  0.4862520072639507  0.5000000000000000  0.0198204664699849
  0.4887605726369537  0.0000000000000000  0.5197509919643672
 -0.0006183449203858  0.5000000000000000  0.5196913901520498
 
  0.00000000E+00  0.00000000E+00  0.00000000E+00
  0.00000000E+00  0.00000000E+00  0.00000000E+00
  0.00000000E+00  0.00000000E+00  0.00000000E+00
  0.00000000E+00  0.00000000E+00  0.00000000E+00
  0.00000000E+00  0.00000000E+00  0.00000000E+00
