Generated using phonoLAMMPS             
   1.00000000000000     
     3.9720000000000000    0.0000000000000000    0.0000000000000000
     0.0000000000000000    3.9580000000000002    0.0000000000000000
     0.0000000000000000    0.0000000000000000    3.9748716109882030
   Pb   Ti   O 
     1     1     3
Direct
  0.0459129547220075  0.0000000000000000  0.0779376174626324
  0.5360059989728343  0.5000000000000000  0.5439598418462156
  0.5043327642070581  0.5000000000000000  0.9992538801397659
  0.5053236877298913  0.0000000000000000  0.4892247941705160
  0.0084245943678524  0.5000000000000000  0.4896238663807106
 
  0.00000000E+00  0.00000000E+00  0.00000000E+00
  0.00000000E+00  0.00000000E+00  0.00000000E+00
  0.00000000E+00  0.00000000E+00  0.00000000E+00
  0.00000000E+00  0.00000000E+00  0.00000000E+00
  0.00000000E+00  0.00000000E+00  0.00000000E+00
