Generated using phonoLAMMPS             
   1.00000000000000     
     3.9620000000000002    0.0000000000000000    0.0000000000000000
     0.0000000000000000    3.9560000000000000    0.0000000000000000
     0.0000000000000000    0.0000000000000000    3.9082240508157469
   Pb   Ti   O 
     1     1     3
Direct
  0.0622988285023540  0.0567289002363394  0.0000000000000000
  0.5412567323510848  0.5392891510157353  0.5000000000000000
  0.4954337856958967  0.4983773965364067  0.0000000000000000
  0.4964197760509179  0.0063637980381123  0.5000000000000000
  0.0045908773997555  0.4992407541734103  0.5000000000000000
 
  0.00000000E+00  0.00000000E+00  0.00000000E+00
  0.00000000E+00  0.00000000E+00  0.00000000E+00
  0.00000000E+00  0.00000000E+00  0.00000000E+00
  0.00000000E+00  0.00000000E+00  0.00000000E+00
  0.00000000E+00  0.00000000E+00  0.00000000E+00
