Generated using phonoLAMMPS             
   1.00000000000000     
     3.9720000000000000    0.0000000000000000    0.0000000000000000
     0.0000000000000000    3.9580000000000002    0.0000000000000000
     0.0000000000000000    0.0000000000000000    3.9042057993888233
   Pb   Ti   O 
     1     1     3
Direct
  0.0665853049470222  0.0531899432749259  0.0000000000000000
  0.5428590214935776  0.5382463680025728  0.5000000000000000
  0.4930352950322450  0.5001038696943830  0.0000000000000000
  0.4945411247692199  0.0072672510443003  0.5000000000000000
  0.0029792537579334  0.5011925679838032  0.5000000000000000
 
  0.00000000E+00  0.00000000E+00  0.00000000E+00
  0.00000000E+00  0.00000000E+00  0.00000000E+00
  0.00000000E+00  0.00000000E+00  0.00000000E+00
  0.00000000E+00  0.00000000E+00  0.00000000E+00
  0.00000000E+00  0.00000000E+00  0.00000000E+00
