Generated using phonoLAMMPS             
   1.00000000000000     
     3.9680000000000000    0.0000000000000000    0.0000000000000000
     0.0000000000000000    3.9500000000000002    0.0000000000000000
     0.0000000000000000    0.0000000000000000    3.9092921823833966
   Pb   Ti   O 
     1     1     3
Direct
  0.0820117595816494  0.0630739109617245  0.0064648648355759
  0.5568308261290804  0.5502974590205945  0.5052411751077286
  0.5060169809712969  0.5160075995873824  1.0026419253191967
  0.5071971951854808  0.0223817760430268  0.5020227277132270
  0.0164088725206227  0.5167048887753922  0.5020038143140735
 
  0.00000000E+00  0.00000000E+00  0.00000000E+00
  0.00000000E+00  0.00000000E+00  0.00000000E+00
  0.00000000E+00  0.00000000E+00  0.00000000E+00
  0.00000000E+00  0.00000000E+00  0.00000000E+00
  0.00000000E+00  0.00000000E+00  0.00000000E+00
