Generated using phonoLAMMPS             
   1.00000000000000     
     3.9660000000000002    0.0000000000000000    0.0000000000000000
     0.0000000000000000    3.9399999999999999    0.0000000000000000
     0.0000000000000000    0.0000000000000000    3.9142271574838721
   Pb   Ti   O 
     1     1     3
Direct
  0.0708499839329732  0.0442779468440624  0.0000000000000000
  0.5437591342130603  0.5342253087316532  0.5000000000000000
  0.4912358890522355  0.5052680409096841  0.0000000000000000
  0.4919911008859483  0.0105931706014527  0.5000000000000000
  0.0021638919157823  0.5056355329131430  0.5000000000000000
 
  0.00000000E+00  0.00000000E+00  0.00000000E+00
  0.00000000E+00  0.00000000E+00  0.00000000E+00
  0.00000000E+00  0.00000000E+00  0.00000000E+00
  0.00000000E+00  0.00000000E+00  0.00000000E+00
  0.00000000E+00  0.00000000E+00  0.00000000E+00
