Generated using phonoLAMMPS
   1.00000000000000
     3.948   0.0000000000000000   0.0000000000000000
     0.0000000000000000    3.940   0.0000000000000000
    0.0000000000000000   0.0000000000000000    4.0
   Pb   Ti   O
     1     1     3
Direct
 0.00  0.00  0.07 
 0.50  0.50  0.55 
 0.50  0.50  0.00 
 0.50  0.00  0.50 
 0.00  0.50  0.50 

