Generated using phonoLAMMPS             
   1.00000000000000     
     3.9460000000000002    0.0000000000000000    0.0000000000000000
     0.0000000000000000    3.9319999999999999    0.0000000000000000
     0.0000000000000000    0.0000000000000000    4.0457245719104646
   Pb   Ti   O 
     1     1     3
Direct
  0.0000000000000000  0.0000000000000000  0.0945118376847327
  0.5000000000000000  0.5000000000000000  0.5547763727835436
  0.5000000000000000  0.5000000000000000 -0.0035631282941839
  0.5000000000000000  0.0000000000000000  0.4867961120305136
  0.0000000000000000  0.5000000000000000  0.4874788057953957
 
  0.00000000E+00  0.00000000E+00  0.00000000E+00
  0.00000000E+00  0.00000000E+00  0.00000000E+00
  0.00000000E+00  0.00000000E+00  0.00000000E+00
  0.00000000E+00  0.00000000E+00  0.00000000E+00
  0.00000000E+00  0.00000000E+00  0.00000000E+00
