Generated using phonoLAMMPS             
   1.00000000000000     
     3.9700000000000002    0.0000000000000000    0.0000000000000000
     0.0000000000000000    3.9319999999999999    0.0000000000000000
     0.0000000000000000    0.0000000000000000    3.9207499971935489
   Pb   Ti   O 
     1     1     3
Direct
  0.0775931976171182  0.0000000000000000  0.0280208553734570
  0.5455693807611868  0.5000000000000000  0.5252321862065880
  0.4880187021556964  0.5000000000000000  0.0167283844737654
  0.4886420813338000  0.0000000000000000  0.5150097678033865
  0.0001766381321839  0.5000000000000000  0.5150088061427942
 
  0.00000000E+00  0.00000000E+00  0.00000000E+00
  0.00000000E+00  0.00000000E+00  0.00000000E+00
  0.00000000E+00  0.00000000E+00  0.00000000E+00
  0.00000000E+00  0.00000000E+00  0.00000000E+00
  0.00000000E+00  0.00000000E+00  0.00000000E+00
