Generated using phonoLAMMPS             
   1.00000000000000     
     3.9720000000000000    0.0000000000000000    0.0000000000000000
     0.0000000000000000    3.9500000000000002    0.0000000000000000
     0.0000000000000000    0.0000000000000000    3.9078079805727644
   Pb   Ti   O 
     1     1     3
Direct
  0.0699322375742540  0.0478226274236688  0.0000000000000000
  0.5437553091901907  0.5360006850197626  0.5000000000000000
  0.4914615972693648  0.5031154244715383  0.0000000000000000
  0.4927452364090149  0.0091491489023278  0.5000000000000000
  0.0021056195571366  0.5039121141827289  0.5000000000000000
 
  0.00000000E+00  0.00000000E+00  0.00000000E+00
  0.00000000E+00  0.00000000E+00  0.00000000E+00
  0.00000000E+00  0.00000000E+00  0.00000000E+00
  0.00000000E+00  0.00000000E+00  0.00000000E+00
  0.00000000E+00  0.00000000E+00  0.00000000E+00
