Generated using phonoLAMMPS             
   1.00000000000000     
     3.9680000000000000    0.0000000000000000    0.0000000000000000
     0.0000000000000000    3.9540000000000002    0.0000000000000000
     0.0000000000000000    0.0000000000000000    3.9071706085917968
   Pb   Ti   O 
     1     1     3
Direct
  0.0663166293889792  0.0525683897669844  0.0000000000000000
  0.5426255531980899  0.5378532591622704  0.5000000000000000
  0.4932969850110485  0.5005791042289074  0.0000000000000000
  0.4945174655131773  0.0076147217528669  0.5000000000000000
  0.0032433668887119  0.5013845250889679  0.5000000000000000
 
  0.00000000E+00  0.00000000E+00  0.00000000E+00
  0.00000000E+00  0.00000000E+00  0.00000000E+00
  0.00000000E+00  0.00000000E+00  0.00000000E+00
  0.00000000E+00  0.00000000E+00  0.00000000E+00
  0.00000000E+00  0.00000000E+00  0.00000000E+00
