Generated using phonoLAMMPS             
   1.00000000000000     
     3.9440000000000000    0.0000000000000000    0.0000000000000000
     0.0000000000000000    3.9319999999999999    0.0000000000000000
     0.0000000000000000    0.0000000000000000    4.0473819302215457
   Pb   Ti   O 
     1     1     3
Direct
  0.0000000000000000  0.0000000000000000  0.0945387610012226
  0.5000000000000000  0.5000000000000000  0.5548876889036362
  0.5000000000000000  0.5000000000000000 -0.0036533009646206
  0.5000000000000000  0.0000000000000000  0.4868189311649936
  0.0000000000000000  0.5000000000000000  0.4874079198947677
 
  0.00000000E+00  0.00000000E+00  0.00000000E+00
  0.00000000E+00  0.00000000E+00  0.00000000E+00
  0.00000000E+00  0.00000000E+00  0.00000000E+00
  0.00000000E+00  0.00000000E+00  0.00000000E+00
  0.00000000E+00  0.00000000E+00  0.00000000E+00
