Generated using phonoLAMMPS             
   1.00000000000000     
     3.9700000000000002    0.0000000000000000    0.0000000000000000
     0.0000000000000000    3.9340000000000002    0.0000000000000000
     0.0000000000000000    0.0000000000000000    3.9176781100903511
   Pb   Ti   O 
     1     1     3
Direct
  0.0874367508424860  0.0516640054662208  0.0108562151053751
  0.5583646652287234  0.5448601158864700  0.5081003372130978
  0.5035689288386085  0.5225421751990207  1.0008513261750871
  0.5041795572679010  0.0265018126079180  0.4992822578698148
  0.0149157322104012  0.5228975252285021  0.4992843709264522
 
  0.00000000E+00  0.00000000E+00  0.00000000E+00
  0.00000000E+00  0.00000000E+00  0.00000000E+00
  0.00000000E+00  0.00000000E+00  0.00000000E+00
  0.00000000E+00  0.00000000E+00  0.00000000E+00
  0.00000000E+00  0.00000000E+00  0.00000000E+00
