Generated using phonoLAMMPS             
   1.00000000000000     
     3.9620000000000002    0.0000000000000000    0.0000000000000000
     0.0000000000000000    3.9440000000000000    0.0000000000000000
     0.0000000000000000    0.0000000000000000    3.9133267443552695
   Pb   Ti   O 
     1     1     3
Direct
  0.0673076236645431  0.0493349630758422  0.0000000000000000
  0.5426478387196669  0.5363041001286545  0.5000000000000000
  0.4930133663833515  0.5024667975480704  0.0000000000000000
  0.4937633280877480  0.0089439895465436  0.5000000000000000
  0.0032678431446933  0.5029501497008811  0.5000000000000000
 
  0.00000000E+00  0.00000000E+00  0.00000000E+00
  0.00000000E+00  0.00000000E+00  0.00000000E+00
  0.00000000E+00  0.00000000E+00  0.00000000E+00
  0.00000000E+00  0.00000000E+00  0.00000000E+00
  0.00000000E+00  0.00000000E+00  0.00000000E+00
