Generated using phonoLAMMPS             
   1.00000000000000     
     3.9600000000000000    0.0000000000000000    0.0000000000000000
     0.0000000000000000    3.9380000000000002    0.0000000000000000
     0.0000000000000000    0.0000000000000000    3.9610308432695978
   Pb   Ti   O 
     1     1     3
Direct
  0.0606606767404197  0.0000000000000000  0.0616054741188322
  0.5400135682408460  0.5000000000000000  0.5403362763594129
  0.4970810405220086  0.5000000000000000  0.0045861847274176
  0.4973526324147287  0.0000000000000000  0.4968729527534657
  0.0048920820819983  0.5000000000000000  0.4965991120408721
 
  0.00000000E+00  0.00000000E+00  0.00000000E+00
  0.00000000E+00  0.00000000E+00  0.00000000E+00
  0.00000000E+00  0.00000000E+00  0.00000000E+00
  0.00000000E+00  0.00000000E+00  0.00000000E+00
  0.00000000E+00  0.00000000E+00  0.00000000E+00
