Generated using phonoLAMMPS             
   1.00000000000000     
     3.9720000000000000    0.0000000000000000    0.0000000000000000
     0.0000000000000000    3.9540000000000002    0.0000000000000000
     0.0000000000000000    0.0000000000000000    3.9061138093508174
   Pb   Ti   O 
     1     1     3
Direct
  0.0824276063680658  0.0636461837669551  0.0041469609148866
  0.5571112512408490  0.5506830986460964  0.5038955806023871
  0.5056852219651258  0.5156048711571699  1.0035118730733559
  0.5071346344867691  0.0220532213994230  0.5034103042279600
  0.0161069203273809  0.5164782594184921  0.5034097884712797
 
  0.00000000E+00  0.00000000E+00  0.00000000E+00
  0.00000000E+00  0.00000000E+00  0.00000000E+00
  0.00000000E+00  0.00000000E+00  0.00000000E+00
  0.00000000E+00  0.00000000E+00  0.00000000E+00
  0.00000000E+00  0.00000000E+00  0.00000000E+00
