Generated using phonoLAMMPS             
   1.00000000000000     
     3.9660000000000002    0.0000000000000000    0.0000000000000000
     0.0000000000000000    3.9540000000000002    0.0000000000000000
     0.0000000000000000    0.0000000000000000    3.9077583105460554
   Pb   Ti   O 
     1     1     3
Direct
  0.0652935367625262  0.0535814329154956  0.0000000000000000
  0.5422656239553089  0.5381959726371004  0.5000000000000000
  0.4938447773857043  0.4999967687301764  0.0000000000000000
  0.4949852710528240  0.0073270432583090  0.5000000000000000
  0.0036107908436401  0.5008987824589126  0.5000000000000000
 
  0.00000000E+00  0.00000000E+00  0.00000000E+00
  0.00000000E+00  0.00000000E+00  0.00000000E+00
  0.00000000E+00  0.00000000E+00  0.00000000E+00
  0.00000000E+00  0.00000000E+00  0.00000000E+00
  0.00000000E+00  0.00000000E+00  0.00000000E+00
