Generated using phonoLAMMPS             
   1.00000000000000     
     3.9460000000000002    0.0000000000000000    0.0000000000000000
     0.0000000000000000    3.9460000000000002    0.0000000000000000
     0.0000000000000000    0.0000000000000000    4.0337477528757413
   Pb   Ti   O 
     1     1     3
Direct
 -0.0000000000000000 -0.0000000000000000  0.0939617419770944
  0.5000000000000000  0.5000000000000000  0.5538717964419312
  0.5000000000000000  0.5000000000000000 -0.0029242499716774
  0.5000000000000000 -0.0000000000000000  0.4875453557763239
  0.0000000000000000  0.5000000000000000  0.4875453557763239
 
  0.00000000E+00  0.00000000E+00  0.00000000E+00
  0.00000000E+00  0.00000000E+00  0.00000000E+00
  0.00000000E+00  0.00000000E+00  0.00000000E+00
  0.00000000E+00  0.00000000E+00  0.00000000E+00
  0.00000000E+00  0.00000000E+00  0.00000000E+00
