Generated using phonoLAMMPS             
   1.00000000000000     
     3.9580000000000002    0.0000000000000000    0.0000000000000000
     0.0000000000000000    3.9560000000000000    0.0000000000000000
     0.0000000000000000    0.0000000000000000    3.9109835990660349
   Pb   Ti   O 
     1     1     3
Direct
  0.0739471117695037  0.0717212872583723  0.0101475846584588
  0.5541208022786188  0.5533678711158286  0.5072804117648002
  0.5102763285715215  0.5114519251518108  1.0012797496011696
  0.5111131916623348  0.0196998369531315  0.4998365964034797
  0.0190082001061792  0.5122247139089947  0.4998301648619532
 
  0.00000000E+00  0.00000000E+00  0.00000000E+00
  0.00000000E+00  0.00000000E+00  0.00000000E+00
  0.00000000E+00  0.00000000E+00  0.00000000E+00
  0.00000000E+00  0.00000000E+00  0.00000000E+00
  0.00000000E+00  0.00000000E+00  0.00000000E+00
