Generated using phonoLAMMPS             
   1.00000000000000     
     3.9680000000000000    0.0000000000000000    0.0000000000000000
     0.0000000000000000    3.9420000000000002    0.0000000000000000
     0.0000000000000000    0.0000000000000000    3.9149850087125415
   Pb   Ti   O 
     1     1     3
Direct
  0.0784644157280381  0.0000000000000000  0.0213229921703171
  0.5455982639062308  0.5000000000000000  0.5208265499620253
  0.4872839254045560  0.5000000000000000  0.0194749294199028
  0.4886507307564338  0.0000000000000000  0.5191991914184625
  0.0000026642046218  0.5000000000000000  0.5191763370292445
 
  0.00000000E+00  0.00000000E+00  0.00000000E+00
  0.00000000E+00  0.00000000E+00  0.00000000E+00
  0.00000000E+00  0.00000000E+00  0.00000000E+00
  0.00000000E+00  0.00000000E+00  0.00000000E+00
  0.00000000E+00  0.00000000E+00  0.00000000E+00
