Generated using phonoLAMMPS             
   1.00000000000000     
     3.9680000000000000    0.0000000000000000    0.0000000000000000
     0.0000000000000000    3.9420000000000002    0.0000000000000000
     0.0000000000000000    0.0000000000000000    3.9843282816474619
   Pb   Ti   O 
     1     1     3
Direct
  0.0469713236209405  0.0000000000000000  0.0767028655939925
  0.5360245924879619  0.5000000000000000  0.5446453497306035
  0.5041614529896281  0.5000000000000000 -0.0007541354901293
  0.5044202407783366  0.0000000000000000  0.4893446984132987
  0.0084223901230133  0.5000000000000000  0.4900612217521873
 
  0.00000000E+00  0.00000000E+00  0.00000000E+00
  0.00000000E+00  0.00000000E+00  0.00000000E+00
  0.00000000E+00  0.00000000E+00  0.00000000E+00
  0.00000000E+00  0.00000000E+00  0.00000000E+00
  0.00000000E+00  0.00000000E+00  0.00000000E+00
