Generated using phonoLAMMPS             
   1.00000000000000     
     3.9500000000000002    0.0000000000000000    0.0000000000000000
     0.0000000000000000    3.9460000000000002    0.0000000000000000
     0.0000000000000000    0.0000000000000000    4.0315679172432635
   Pb   Ti   O 
     1     1     3
Direct
  0.0213288389640348  0.0000000000000000  0.0900704061317477
  0.5209672461223308  0.5000000000000000  0.5496977494662222
  0.5191919674809319  0.5000000000000000 -0.0068867864319975
  0.5191625340705006  0.0000000000000000  0.4834525663952732
  0.0193494133620874  0.5000000000000000  0.4836660644390393
 
  0.00000000E+00  0.00000000E+00  0.00000000E+00
  0.00000000E+00  0.00000000E+00  0.00000000E+00
  0.00000000E+00  0.00000000E+00  0.00000000E+00
  0.00000000E+00  0.00000000E+00  0.00000000E+00
  0.00000000E+00  0.00000000E+00  0.00000000E+00
