Generated using phonoLAMMPS             
   1.00000000000000     
     3.9500000000000002    0.0000000000000000    0.0000000000000000
     0.0000000000000000    3.9359999999999999    0.0000000000000000
     0.0000000000000000    0.0000000000000000    4.0386254148499745
   Pb   Ti   O 
     1     1     3
Direct
  0.0196661879705326  0.0000000000000000  0.0901435230500837
  0.5197485388236179  0.5000000000000000  0.5502370890784632
  0.5201492426336654  0.5000000000000000 -0.0071756651613418
  0.5202653775794083  0.0000000000000000  0.4830317175908845
  0.0201706529929243  0.5000000000000000  0.4837633354420655
 
  0.00000000E+00  0.00000000E+00  0.00000000E+00
  0.00000000E+00  0.00000000E+00  0.00000000E+00
  0.00000000E+00  0.00000000E+00  0.00000000E+00
  0.00000000E+00  0.00000000E+00  0.00000000E+00
  0.00000000E+00  0.00000000E+00  0.00000000E+00
