Generated using phonoLAMMPS             
   1.00000000000000     
     3.9560000000000000    0.0000000000000000    0.0000000000000000
     0.0000000000000000    3.9540000000000002    0.0000000000000000
     0.0000000000000000    0.0000000000000000    4.0208832917079507
   Pb   Ti   O 
     1     1     3
Direct
  0.0000000000000000  0.0000000000000000  0.0937411931918545
  0.5000000000000000  0.5000000000000000  0.5528860070137742
  0.5000000000000000  0.5000000000000000 -0.0023691612056291
  0.5000000000000000  0.0000000000000000  0.4878282994705093
  0.0000000000000000  0.5000000000000000  0.4879136615294893
 
  0.00000000E+00  0.00000000E+00  0.00000000E+00
  0.00000000E+00  0.00000000E+00  0.00000000E+00
  0.00000000E+00  0.00000000E+00  0.00000000E+00
  0.00000000E+00  0.00000000E+00  0.00000000E+00
  0.00000000E+00  0.00000000E+00  0.00000000E+00
