Generated using phonoLAMMPS             
   1.00000000000000     
     3.9560000000000000    0.0000000000000000    0.0000000000000000
     0.0000000000000000    3.9500000000000002    0.0000000000000000
     0.0000000000000000    0.0000000000000000    4.0242390756153874
   Pb   Ti   O 
     1     1     3
Direct
  0.0000000000000000  0.0000000000000000  0.0939195421932068
  0.5000000000000000  0.5000000000000000  0.5531373259263035
  0.5000000000000000  0.5000000000000000 -0.0025536752087033
  0.5000000000000000  0.0000000000000000  0.4876033015212712
  0.0000000000000000  0.5000000000000000  0.4878935055679187
 
  0.00000000E+00  0.00000000E+00  0.00000000E+00
  0.00000000E+00  0.00000000E+00  0.00000000E+00
  0.00000000E+00  0.00000000E+00  0.00000000E+00
  0.00000000E+00  0.00000000E+00  0.00000000E+00
  0.00000000E+00  0.00000000E+00  0.00000000E+00
