Generated using phonoLAMMPS             
   1.00000000000000     
     3.9560000000000000    0.0000000000000000    0.0000000000000000
     0.0000000000000000    3.9500000000000002    0.0000000000000000
     0.0000000000000000    0.0000000000000000    3.9125806811009847
   Pb   Ti   O 
     1     1     3
Direct
  0.0616739334061286  0.0560070873953835  0.0000000000000000
  0.5408257737163897  0.5388229159416339  0.5000000000000000
  0.4959169727418146  0.4988947503387947  0.0000000000000000
  0.4965536743535008  0.0068223526423665  0.5000000000000000
  0.0050296457821640  0.4994528936818304  0.5000000000000000
 
  0.00000000E+00  0.00000000E+00  0.00000000E+00
  0.00000000E+00  0.00000000E+00  0.00000000E+00
  0.00000000E+00  0.00000000E+00  0.00000000E+00
  0.00000000E+00  0.00000000E+00  0.00000000E+00
  0.00000000E+00  0.00000000E+00  0.00000000E+00
