Generated using phonoLAMMPS             
   1.00000000000000     
     3.9620000000000002    0.0000000000000000    0.0000000000000000
     0.0000000000000000    3.9319999999999999    0.0000000000000000
     0.0000000000000000    0.0000000000000000    3.9382451255726552
   Pb   Ti   O 
     1     1     3
Direct
  0.0793571737303511  0.0545996261768817  0.0294377312427502
  0.5555627071221847  0.5454567958235781  0.5178376161571171
  0.5081472769922201  0.5213414448249468  0.9939296504852625
  0.5080663158339491  0.0257085047417903  0.4885543254588240
  0.0173321607094225  0.5213592628209260  0.4886151839458789
 
  0.00000000E+00  0.00000000E+00  0.00000000E+00
  0.00000000E+00  0.00000000E+00  0.00000000E+00
  0.00000000E+00  0.00000000E+00  0.00000000E+00
  0.00000000E+00  0.00000000E+00  0.00000000E+00
  0.00000000E+00  0.00000000E+00  0.00000000E+00
