Generated using phonoLAMMPS             
   1.00000000000000     
     3.9600000000000000    0.0000000000000000    0.0000000000000000
     0.0000000000000000    3.9500000000000002    0.0000000000000000
     0.0000000000000000    0.0000000000000000    3.9142814063084468
   Pb   Ti   O 
     1     1     3
Direct
  0.0773368691425668  0.0670371774961711  0.0131873265302621
  0.5551501375021838  0.5515594837319624  0.5090448719017852
  0.5086063581072147  0.5140437418117163  1.0001176714358957
  0.5093649835087990  0.0212525836069332  0.4980277617199519
  0.0180072861273020  0.5145726477413322  0.4979968757019278
 
  0.00000000E+00  0.00000000E+00  0.00000000E+00
  0.00000000E+00  0.00000000E+00  0.00000000E+00
  0.00000000E+00  0.00000000E+00  0.00000000E+00
  0.00000000E+00  0.00000000E+00  0.00000000E+00
  0.00000000E+00  0.00000000E+00  0.00000000E+00
