Generated using phonoLAMMPS             
   1.00000000000000     
     3.9500000000000002    0.0000000000000000    0.0000000000000000
     0.0000000000000000    3.9340000000000002    0.0000000000000000
     0.0000000000000000    0.0000000000000000    4.0216411796504952
   Pb   Ti   O 
     1     1     3
Direct
  0.0478848084840967  0.0406495195815736  0.0682956456109420
  0.5427396427903698  0.5378609911902309  0.5322244233843882
  0.5254679453328773  0.5296348601817060  0.9789739085227483
  0.5249470956991257  0.0307832381779288  0.4691088793206137
  0.0274261420816795  0.5295370252567170  0.4697716504511111
 
  0.00000000E+00  0.00000000E+00  0.00000000E+00
  0.00000000E+00  0.00000000E+00  0.00000000E+00
  0.00000000E+00  0.00000000E+00  0.00000000E+00
  0.00000000E+00  0.00000000E+00  0.00000000E+00
  0.00000000E+00  0.00000000E+00  0.00000000E+00
