Generated using phonoLAMMPS             
   1.00000000000000     
     3.9700000000000002    0.0000000000000000    0.0000000000000000
     0.0000000000000000    3.9560000000000000    0.0000000000000000
     0.0000000000000000    0.0000000000000000    3.9092838906173868
   Pb   Ti   O 
     1     1     3
Direct
  0.0793857314563026  0.0000000000000000  0.0214660579817855
  0.5457145876195644  0.5000000000000000  0.5208672317671792
  0.4864851334673926  0.5000000000000000  0.0194352594486181
  0.4888334934863262  0.0000000000000000  0.5191451723049044
 -0.0004189460295524  0.5000000000000000  0.5190862784975130
 
  0.00000000E+00  0.00000000E+00  0.00000000E+00
  0.00000000E+00  0.00000000E+00  0.00000000E+00
  0.00000000E+00  0.00000000E+00  0.00000000E+00
  0.00000000E+00  0.00000000E+00  0.00000000E+00
  0.00000000E+00  0.00000000E+00  0.00000000E+00
