Generated using phonoLAMMPS             
   1.00000000000000     
     3.9540000000000002    0.0000000000000000    0.0000000000000000
     0.0000000000000000    3.9520000000000000    0.0000000000000000
     0.0000000000000000    0.0000000000000000    3.9200177880527955
   Pb   Ti   O 
     1     1     3
Direct
  0.0724166373323910  0.0705027406035825  0.0193104603272651
  0.5533102330123656  0.5526240809637583  0.5123329158705460
  0.5113359307565020  0.5123464209274440  0.9978487682187214
  0.5118128751792800  0.0202026999583041  0.4944458037468193
  0.0195899581075839  0.5127896919349962  0.4944365591264543
 
  0.00000000E+00  0.00000000E+00  0.00000000E+00
  0.00000000E+00  0.00000000E+00  0.00000000E+00
  0.00000000E+00  0.00000000E+00  0.00000000E+00
  0.00000000E+00  0.00000000E+00  0.00000000E+00
  0.00000000E+00  0.00000000E+00  0.00000000E+00
