Generated using phonoLAMMPS             
   1.00000000000000     
     3.9480000000000000    0.0000000000000000    0.0000000000000000
     0.0000000000000000    3.9480000000000000    0.0000000000000000
     0.0000000000000000    0.0000000000000000    4.0307669285678092
   Pb   Ti   O 
     1     1     3
Direct
  0.0000000000000000  0.0000000000000000  0.0938913975489916
  0.5000000000000000  0.5000000000000000  0.5536335836243190
  0.5000000000000000  0.5000000000000000 -0.0027988719314069
  0.5000000000000000  0.0000000000000000  0.4876369453790473
 -0.0000000000000000  0.5000000000000000  0.4876369453790473
 
  0.00000000E+00  0.00000000E+00  0.00000000E+00
  0.00000000E+00  0.00000000E+00  0.00000000E+00
  0.00000000E+00  0.00000000E+00  0.00000000E+00
  0.00000000E+00  0.00000000E+00  0.00000000E+00
  0.00000000E+00  0.00000000E+00  0.00000000E+00
