Generated using phonoLAMMPS             
   1.00000000000000     
     3.9700000000000002    0.0000000000000000    0.0000000000000000
     0.0000000000000000    3.9420000000000002    0.0000000000000000
     0.0000000000000000    0.0000000000000000    3.9123648776590536
   Pb   Ti   O 
     1     1     3
Direct
  0.0855444225296170  0.0570006556950228  0.0068006372773244
  0.5578774390621786  0.5476341394973715  0.5054949766709186
  0.5043069589807692  0.5194063658586467  1.0024915453283589
  0.5053326428074896  0.0245085428825120  0.5018054469303384
  0.0154041710080740  0.5199159304545397  0.5017819010829229
 
  0.00000000E+00  0.00000000E+00  0.00000000E+00
  0.00000000E+00  0.00000000E+00  0.00000000E+00
  0.00000000E+00  0.00000000E+00  0.00000000E+00
  0.00000000E+00  0.00000000E+00  0.00000000E+00
  0.00000000E+00  0.00000000E+00  0.00000000E+00
