Generated using phonoLAMMPS             
   1.00000000000000     
     3.9660000000000002    0.0000000000000000    0.0000000000000000
     0.0000000000000000    3.9480000000000000    0.0000000000000000
     0.0000000000000000    0.0000000000000000    3.9108390371727109
   Pb   Ti   O 
     1     1     3
Direct
  0.0821289393999025  0.0623529378824108  0.0068099861811951
  0.5567697542310754  0.5499673850786312  0.5054629204728472
  0.5060072469516284  0.5164486754798850  1.0025027722551982
  0.5070840202334524  0.0226689647926460  0.5018104842772640
  0.0164756735720883  0.5170276711544958  0.5017883441033286
 
  0.00000000E+00  0.00000000E+00  0.00000000E+00
  0.00000000E+00  0.00000000E+00  0.00000000E+00
  0.00000000E+00  0.00000000E+00  0.00000000E+00
  0.00000000E+00  0.00000000E+00  0.00000000E+00
  0.00000000E+00  0.00000000E+00  0.00000000E+00
