Generated using phonoLAMMPS             
   1.00000000000000     
     3.9380000000000002    0.0000000000000000    0.0000000000000000
     0.0000000000000000    3.9340000000000002    0.0000000000000000
     0.0000000000000000    0.0000000000000000    4.0505545578321369
   Pb   Ti   O 
     1     1     3
Direct
  0.0000000000000000  0.0000000000000000  0.0946001418895866
  0.5000000000000000  0.5000000000000000  0.5551254391102098
  0.5000000000000000  0.5000000000000000 -0.0038002503601669
  0.5000000000000000  0.0000000000000000  0.4869189426222059
  0.0000000000000000  0.5000000000000000  0.4871557267381613
 
  0.00000000E+00  0.00000000E+00  0.00000000E+00
  0.00000000E+00  0.00000000E+00  0.00000000E+00
  0.00000000E+00  0.00000000E+00  0.00000000E+00
  0.00000000E+00  0.00000000E+00  0.00000000E+00
  0.00000000E+00  0.00000000E+00  0.00000000E+00
