Generated using phonoLAMMPS             
   1.00000000000000     
     3.9680000000000000    0.0000000000000000    0.0000000000000000
     0.0000000000000000    3.9560000000000000    0.0000000000000000
     0.0000000000000000    0.0000000000000000    3.9096157880142504
   Pb   Ti   O 
     1     1     3
Direct
  0.0791521780440276  0.0000000000000000  0.0214113424083148
  0.5455664063389063  0.5000000000000000  0.5208674565404119
  0.4866364336293439  0.5000000000000000  0.0194472244032341
  0.4889080927153107  0.0000000000000000  0.5191841845412069
 -0.0002631107280138  0.5000000000000000  0.5190897921064644
 
  0.00000000E+00  0.00000000E+00  0.00000000E+00
  0.00000000E+00  0.00000000E+00  0.00000000E+00
  0.00000000E+00  0.00000000E+00  0.00000000E+00
  0.00000000E+00  0.00000000E+00  0.00000000E+00
  0.00000000E+00  0.00000000E+00  0.00000000E+00
