Generated using phonoLAMMPS             
   1.00000000000000     
     3.9680000000000000    0.0000000000000000    0.0000000000000000
     0.0000000000000000    3.9560000000000000    0.0000000000000000
     0.0000000000000000    0.0000000000000000    3.9851359657846124
   Pb   Ti   O 
     1     1     3
Direct
  0.0427957372963317  0.0000000000000000  0.0804807234733893
  0.5343785797486746  0.5000000000000000  0.5451371038956337
  0.5062636558191330  0.5000000000000000  0.9980450515977869
  0.5068768637979159  0.0000000000000000  0.4880019517128195
  0.0096851633375235  0.5000000000000000  0.4883351693200129
 
  0.00000000E+00  0.00000000E+00  0.00000000E+00
  0.00000000E+00  0.00000000E+00  0.00000000E+00
  0.00000000E+00  0.00000000E+00  0.00000000E+00
  0.00000000E+00  0.00000000E+00  0.00000000E+00
  0.00000000E+00  0.00000000E+00  0.00000000E+00
