Generated using phonoLAMMPS             
   1.00000000000000     
     3.9500000000000002    0.0000000000000000    0.0000000000000000
     0.0000000000000000    3.9380000000000002    0.0000000000000000
     0.0000000000000000    0.0000000000000000    4.0373043819202730
   Pb   Ti   O 
     1     1     3
Direct
  0.0214132870882342  0.0000000000000000  0.0901439106282804
  0.5209873294830608  0.5000000000000000  0.5501369808689817
  0.5191629019237972  0.5000000000000000 -0.0071260047186598
  0.5191128223860230  0.0000000000000000  0.4831141688739224
  0.0193236591189755  0.5000000000000000  0.4837309443474627
 
  0.00000000E+00  0.00000000E+00  0.00000000E+00
  0.00000000E+00  0.00000000E+00  0.00000000E+00
  0.00000000E+00  0.00000000E+00  0.00000000E+00
  0.00000000E+00  0.00000000E+00  0.00000000E+00
  0.00000000E+00  0.00000000E+00  0.00000000E+00
