Generated using phonoLAMMPS             
   1.00000000000000     
     3.9520000000000000    0.0000000000000000    0.0000000000000000
     0.0000000000000000    3.9460000000000002    0.0000000000000000
     0.0000000000000000    0.0000000000000000    4.0297803327165225
   Pb   Ti   O 
     1     1     3
Direct
  0.0000000000000000  0.0000000000000000  0.0940273927800134
  0.5000000000000000  0.5000000000000000  0.5535646077406686
  0.5000000000000000  0.5000000000000000 -0.0027932852523765
  0.5000000000000000  0.0000000000000000  0.4874136869105005
  0.0000000000000000  0.5000000000000000  0.4877875978211925
 
  0.00000000E+00  0.00000000E+00  0.00000000E+00
  0.00000000E+00  0.00000000E+00  0.00000000E+00
  0.00000000E+00  0.00000000E+00  0.00000000E+00
  0.00000000E+00  0.00000000E+00  0.00000000E+00
  0.00000000E+00  0.00000000E+00  0.00000000E+00
