Generated using phonoLAMMPS             
   1.00000000000000     
     3.9560000000000000    0.0000000000000000    0.0000000000000000
     0.0000000000000000    3.9420000000000002    0.0000000000000000
     0.0000000000000000    0.0000000000000000    4.0296012447366021
   Pb   Ti   O 
     1     1     3
Direct
  0.0000000000000000  0.0000000000000000  0.0939483781833393
  0.5000000000000000  0.5000000000000000  0.5535594513370150
  0.5000000000000000  0.5000000000000000 -0.0027547791137617
  0.5000000000000000  0.0000000000000000  0.4872758829622433
  0.0000000000000000  0.5000000000000000  0.4879710666311578
 
  0.00000000E+00  0.00000000E+00  0.00000000E+00
  0.00000000E+00  0.00000000E+00  0.00000000E+00
  0.00000000E+00  0.00000000E+00  0.00000000E+00
  0.00000000E+00  0.00000000E+00  0.00000000E+00
  0.00000000E+00  0.00000000E+00  0.00000000E+00
