Generated using phonoLAMMPS             
   1.00000000000000     
     3.9660000000000002    0.0000000000000000    0.0000000000000000
     0.0000000000000000    3.9420000000000002    0.0000000000000000
     0.0000000000000000    0.0000000000000000    3.9170287436826254
   Pb   Ti   O 
     1     1     3
Direct
  0.0778548457775010  0.0000000000000000  0.0261395949895496
  0.5453170532958268  0.5000000000000000  0.5239514269501413
  0.4876464980499172  0.5000000000000000  0.0175082438536647
  0.4889376919782250  0.0000000000000000  0.5162620451901416
  0.0002439108985950  0.5000000000000000  0.5161386890164750
 
  0.00000000E+00  0.00000000E+00  0.00000000E+00
  0.00000000E+00  0.00000000E+00  0.00000000E+00
  0.00000000E+00  0.00000000E+00  0.00000000E+00
  0.00000000E+00  0.00000000E+00  0.00000000E+00
  0.00000000E+00  0.00000000E+00  0.00000000E+00
