Generated using phonoLAMMPS             
   1.00000000000000     
     3.9720000000000000    0.0000000000000000    0.0000000000000000
     0.0000000000000000    3.9480000000000000    0.0000000000000000
     0.0000000000000000    0.0000000000000000    3.9086622953229742
   Pb   Ti   O 
     1     1     3
Direct
  0.0705561387092731  0.0466446178164698  0.0000000000000000
  0.5439310666903628  0.5354792290262396  0.5000000000000000
  0.4911485540840800  0.5037950933597271  0.0000000000000000
  0.4924172700560974  0.0095775716177091  0.5000000000000000
  0.0019469704601728  0.5045034881798636  0.5000000000000000
 
  0.00000000E+00  0.00000000E+00  0.00000000E+00
  0.00000000E+00  0.00000000E+00  0.00000000E+00
  0.00000000E+00  0.00000000E+00  0.00000000E+00
  0.00000000E+00  0.00000000E+00  0.00000000E+00
  0.00000000E+00  0.00000000E+00  0.00000000E+00
