Generated using phonoLAMMPS             
   1.00000000000000     
     3.9520000000000000    0.0000000000000000    0.0000000000000000
     0.0000000000000000    3.9420000000000002    0.0000000000000000
     0.0000000000000000    0.0000000000000000    4.0329247556890104
   Pb   Ti   O 
     1     1     3
Direct
  0.0214134542819070  0.0000000000000000  0.0900908602738730
  0.5210320072788737  0.5000000000000000  0.5498041440871059
  0.5191526529469891  0.5000000000000000 -0.0069392578966334
  0.5191022237999944  0.0000000000000000  0.4832680348041176
  0.0192996616922267  0.5000000000000000  0.4837762187316509
 
  0.00000000E+00  0.00000000E+00  0.00000000E+00
  0.00000000E+00  0.00000000E+00  0.00000000E+00
  0.00000000E+00  0.00000000E+00  0.00000000E+00
  0.00000000E+00  0.00000000E+00  0.00000000E+00
  0.00000000E+00  0.00000000E+00  0.00000000E+00
