Generated using phonoLAMMPS             
   1.00000000000000     
     3.9620000000000002    0.0000000000000000    0.0000000000000000
     0.0000000000000000    3.9580000000000002    0.0000000000000000
     0.0000000000000000    0.0000000000000000    3.9825713800027658
   Pb   Ti   O 
     1     1     3
Direct
  0.0444642236727978  0.0000000000000000  0.0786148049917841
  0.5346331956168429  0.5000000000000000  0.5447597186604968
  0.5053764123486917  0.5000000000000000  0.9987048741608155
  0.5061090845277672  0.0000000000000000  0.4890170574753456
  0.0094170838334130  0.5000000000000000  0.4889035447117967
 
  0.00000000E+00  0.00000000E+00  0.00000000E+00
  0.00000000E+00  0.00000000E+00  0.00000000E+00
  0.00000000E+00  0.00000000E+00  0.00000000E+00
  0.00000000E+00  0.00000000E+00  0.00000000E+00
  0.00000000E+00  0.00000000E+00  0.00000000E+00
