Generated using phonoLAMMPS             
   1.00000000000000     
     3.9620000000000002    0.0000000000000000    0.0000000000000000
     0.0000000000000000    3.9340000000000002    0.0000000000000000
     0.0000000000000000    0.0000000000000000    4.0311884502322828
   Pb   Ti   O 
     1     1     3
Direct
  0.0000000000000000  0.0000000000000000  0.0939685044613446
  0.5000000000000000  0.5000000000000000  0.5536846666530797
  0.5000000000000000  0.5000000000000000 -0.0028287725750951
  0.5000000000000000  0.0000000000000000  0.4869201623615603
  0.0000000000000000  0.5000000000000000  0.4882554390991073
 
  0.00000000E+00  0.00000000E+00  0.00000000E+00
  0.00000000E+00  0.00000000E+00  0.00000000E+00
  0.00000000E+00  0.00000000E+00  0.00000000E+00
  0.00000000E+00  0.00000000E+00  0.00000000E+00
  0.00000000E+00  0.00000000E+00  0.00000000E+00
