Generated using phonoLAMMPS             
   1.00000000000000     
     3.9560000000000000    0.0000000000000000    0.0000000000000000
     0.0000000000000000    3.9420000000000002    0.0000000000000000
     0.0000000000000000    0.0000000000000000    4.0207462513098493
   Pb   Ti   O 
     1     1     3
Direct
  0.0327169892373344  0.0000000000000000  0.0870640052402953
  0.5286199449819934  0.5000000000000000  0.5486312161587364
  0.5124705312096840  0.5000000000000000 -0.0054528379346036
  0.5121597296199220  0.0000000000000000  0.4845972354093879
  0.0140328049510576  0.5000000000000000  0.4851603811261699
 
  0.00000000E+00  0.00000000E+00  0.00000000E+00
  0.00000000E+00  0.00000000E+00  0.00000000E+00
  0.00000000E+00  0.00000000E+00  0.00000000E+00
  0.00000000E+00  0.00000000E+00  0.00000000E+00
  0.00000000E+00  0.00000000E+00  0.00000000E+00
