Generated using phonoLAMMPS             
   1.00000000000000     
     3.9720000000000000    0.0000000000000000    0.0000000000000000
     0.0000000000000000    3.9440000000000000    0.0000000000000000
     0.0000000000000000    0.0000000000000000    3.9105872408805684
   Pb   Ti   O 
     1     1     3
Direct
  0.0717309549038710  0.0443747337610828  0.0000000000000000
  0.5442438479153151  0.5344194467361236  0.5000000000000000
  0.4906237578255678  0.5051057229268487  0.0000000000000000
  0.4917560058821930  0.0104177988385130  0.5000000000000000
  0.0016454334730490  0.5056822977374209  0.5000000000000000
 
  0.00000000E+00  0.00000000E+00  0.00000000E+00
  0.00000000E+00  0.00000000E+00  0.00000000E+00
  0.00000000E+00  0.00000000E+00  0.00000000E+00
  0.00000000E+00  0.00000000E+00  0.00000000E+00
  0.00000000E+00  0.00000000E+00  0.00000000E+00
