Generated using phonoLAMMPS             
   1.00000000000000     
     3.9500000000000002    0.0000000000000000    0.0000000000000000
     0.0000000000000000    3.9319999999999999    0.0000000000000000
     0.0000000000000000    0.0000000000000000    4.0423762870709483
   Pb   Ti   O 
     1     1     3
Direct
  0.0000000000000000  0.0000000000000000  0.0943382526598915
  0.5000000000000000  0.5000000000000000  0.5545339662202885
  0.5000000000000000  0.5000000000000000 -0.0033811332063599
  0.5000000000000000  0.0000000000000000  0.4868052149089332
  0.0000000000000000  0.5000000000000000  0.4877036994172506
 
  0.00000000E+00  0.00000000E+00  0.00000000E+00
  0.00000000E+00  0.00000000E+00  0.00000000E+00
  0.00000000E+00  0.00000000E+00  0.00000000E+00
  0.00000000E+00  0.00000000E+00  0.00000000E+00
  0.00000000E+00  0.00000000E+00  0.00000000E+00
