Generated using phonoLAMMPS             
   1.00000000000000     
     3.9640000000000000    0.0000000000000000    0.0000000000000000
     0.0000000000000000    3.9420000000000002    0.0000000000000000
     0.0000000000000000    0.0000000000000000    3.9135734636179240
   Pb   Ti   O 
     1     1     3
Direct
  0.0690978113515034  0.0468781405379909  0.0000000000000000
  0.5432363149068408  0.5353343503384403  0.5000000000000000
  0.4921000110057820  0.5038231162392512  0.0000000000000000
  0.4928441075545370  0.0097413950350723  0.5000000000000000
  0.0027217551813474  0.5042229978492314  0.5000000000000000
 
  0.00000000E+00  0.00000000E+00  0.00000000E+00
  0.00000000E+00  0.00000000E+00  0.00000000E+00
  0.00000000E+00  0.00000000E+00  0.00000000E+00
  0.00000000E+00  0.00000000E+00  0.00000000E+00
  0.00000000E+00  0.00000000E+00  0.00000000E+00
