Generated using phonoLAMMPS             
   1.00000000000000     
     3.9500000000000002    0.0000000000000000    0.0000000000000000
     0.0000000000000000    3.9480000000000000    0.0000000000000000
     0.0000000000000000    0.0000000000000000    3.9669865627721457
   Pb   Ti   O 
     1     1     3
Direct
  0.0570767413869722  0.0000000000000000  0.0653521916153907
  0.5381645146282182  0.5000000000000000  0.5416485385508439
  0.4989718348704309  0.5000000000000000  0.0032156060011704
  0.4994733624935893  0.0000000000000000  0.4953807733782415
  0.0063135466208276  0.5000000000000000  0.4944028904542858
 
  0.00000000E+00  0.00000000E+00  0.00000000E+00
  0.00000000E+00  0.00000000E+00  0.00000000E+00
  0.00000000E+00  0.00000000E+00  0.00000000E+00
  0.00000000E+00  0.00000000E+00  0.00000000E+00
  0.00000000E+00  0.00000000E+00  0.00000000E+00
