Generated using phonoLAMMPS             
   1.00000000000000     
     3.9640000000000000    0.0000000000000000    0.0000000000000000
     0.0000000000000000    3.9500000000000002    0.0000000000000000
     0.0000000000000000    0.0000000000000000    3.9100598289549735
   Pb   Ti   O 
     1     1     3
Direct
  0.0659894929925819  0.0519498245828464  0.0000000000000000
  0.5423745289316927  0.5374775102975153  0.5000000000000000
  0.4935734489365494  0.5009944978515514  0.0000000000000000
  0.4945424577646295  0.0079530223241673  0.5000000000000000
  0.0035200713745562  0.5016251449439162  0.5000000000000000
 
  0.00000000E+00  0.00000000E+00  0.00000000E+00
  0.00000000E+00  0.00000000E+00  0.00000000E+00
  0.00000000E+00  0.00000000E+00  0.00000000E+00
  0.00000000E+00  0.00000000E+00  0.00000000E+00
  0.00000000E+00  0.00000000E+00  0.00000000E+00
