Generated using phonoLAMMPS             
   1.00000000000000     
     3.9560000000000000    0.0000000000000000    0.0000000000000000
     0.0000000000000000    3.9540000000000002    0.0000000000000000
     0.0000000000000000    0.0000000000000000    3.9560765792671067
   Pb   Ti   O 
     1     1     3
Direct
  0.0600331669751125  0.0000000000000000  0.0625836891324744
  0.5394607600842202  0.5000000000000000  0.5401080982984547
  0.4971299901208876  0.5000000000000000  0.0044600845937167
  0.4982190182573665  0.0000000000000000  0.4969013943403472
  0.0051570645623997  0.5000000000000000  0.4959467336349941
 
  0.00000000E+00  0.00000000E+00  0.00000000E+00
  0.00000000E+00  0.00000000E+00  0.00000000E+00
  0.00000000E+00  0.00000000E+00  0.00000000E+00
  0.00000000E+00  0.00000000E+00  0.00000000E+00
  0.00000000E+00  0.00000000E+00  0.00000000E+00
