Generated using phonoLAMMPS             
   1.00000000000000     
     3.9720000000000000    0.0000000000000000    0.0000000000000000
     0.0000000000000000    3.9460000000000002    0.0000000000000000
     0.0000000000000000    0.0000000000000000    3.9098737135853048
   Pb   Ti   O 
     1     1     3
Direct
  0.0851685203876942  0.0586300769714220  0.0050686284471854
  0.5578451173418928  0.5484557767317674  0.5044259063459113
  0.5044098349439492  0.5184336343115167  1.0031615551096840
  0.5056455824505884  0.0238592633610715  0.5028683743324732
  0.0153965792640194  0.5190868830123334  0.5028500430544770
 
  0.00000000E+00  0.00000000E+00  0.00000000E+00
  0.00000000E+00  0.00000000E+00  0.00000000E+00
  0.00000000E+00  0.00000000E+00  0.00000000E+00
  0.00000000E+00  0.00000000E+00  0.00000000E+00
  0.00000000E+00  0.00000000E+00  0.00000000E+00
