Generated using phonoLAMMPS             
   1.00000000000000     
     3.9359999999999999    0.0000000000000000    0.0000000000000000
     0.0000000000000000    3.9340000000000002    0.0000000000000000
     0.0000000000000000    0.0000000000000000    4.0516702905574364
   Pb   Ti   O 
     1     1     3
Direct
  0.0000000000000000  0.0000000000000000  0.0946608022038323
  0.5000000000000000  0.5000000000000000  0.5552279970017944
  0.5000000000000000  0.5000000000000000 -0.0038236171215681
  0.5000000000000000  0.0000000000000000  0.4869101496298388
  0.0000000000000000  0.5000000000000000  0.4870246682860956
 
  0.00000000E+00  0.00000000E+00  0.00000000E+00
  0.00000000E+00  0.00000000E+00  0.00000000E+00
  0.00000000E+00  0.00000000E+00  0.00000000E+00
  0.00000000E+00  0.00000000E+00  0.00000000E+00
  0.00000000E+00  0.00000000E+00  0.00000000E+00
