Generated using phonoLAMMPS             
   1.00000000000000     
     3.9580000000000002    0.0000000000000000    0.0000000000000000
     0.0000000000000000    3.9480000000000000    0.0000000000000000
     0.0000000000000000    0.0000000000000000    3.9127656047162587
   Pb   Ti   O 
     1     1     3
Direct
  0.0637774594482969  0.0536562153346362  0.0000000000000000
  0.5415212639269203  0.5379686382106335  0.5000000000000000
  0.4948550642878147  0.5002028314273029  0.0000000000000000
  0.4954586557627282  0.0075567367594827  0.5000000000000000
  0.0043875565742555  0.5006155782679408  0.5000000000000000
 
  0.00000000E+00  0.00000000E+00  0.00000000E+00
  0.00000000E+00  0.00000000E+00  0.00000000E+00
  0.00000000E+00  0.00000000E+00  0.00000000E+00
  0.00000000E+00  0.00000000E+00  0.00000000E+00
  0.00000000E+00  0.00000000E+00  0.00000000E+00
