Generated using phonoLAMMPS             
   1.00000000000000     
     3.9640000000000000    0.0000000000000000    0.0000000000000000
     0.0000000000000000    3.9560000000000000    0.0000000000000000
     0.0000000000000000    0.0000000000000000    3.9075378690092428
   Pb   Ti   O 
     1     1     3
Direct
  0.0632280910970732  0.0558792098157583  0.0000000000000000
  0.5416070757660302  0.5390238229110978  0.5000000000000000
  0.4949184933623814  0.4987753251027272  0.0000000000000000
  0.4959993381379947  0.0065994207753962  0.5000000000000000
  0.0042470016365250  0.4997222213950269  0.5000000000000000
 
  0.00000000E+00  0.00000000E+00  0.00000000E+00
  0.00000000E+00  0.00000000E+00  0.00000000E+00
  0.00000000E+00  0.00000000E+00  0.00000000E+00
  0.00000000E+00  0.00000000E+00  0.00000000E+00
  0.00000000E+00  0.00000000E+00  0.00000000E+00
