Generated using phonoLAMMPS             
   1.00000000000000     
     3.9580000000000002    0.0000000000000000    0.0000000000000000
     0.0000000000000000    3.9500000000000002    0.0000000000000000
     0.0000000000000000    0.0000000000000000    4.0221263983762006
   Pb   Ti   O 
     1     1     3
Direct
  0.0000000000000000  0.0000000000000000  0.0938017345285495
  0.5000000000000000  0.5000000000000000  0.5529725724225727
  0.5000000000000000  0.5000000000000000 -0.0024269972695418
  0.5000000000000000  0.0000000000000000  0.4876326180421235
  0.0000000000000000  0.5000000000000000  0.4880200722762928
 
  0.00000000E+00  0.00000000E+00  0.00000000E+00
  0.00000000E+00  0.00000000E+00  0.00000000E+00
  0.00000000E+00  0.00000000E+00  0.00000000E+00
  0.00000000E+00  0.00000000E+00  0.00000000E+00
  0.00000000E+00  0.00000000E+00  0.00000000E+00
