Generated using phonoLAMMPS             
   1.00000000000000     
     3.9380000000000002    0.0000000000000000    0.0000000000000000
     0.0000000000000000    3.9319999999999999    0.0000000000000000
     0.0000000000000000    0.0000000000000000    4.0518188454164372
   Pb   Ti   O 
     1     1     3
Direct
  0.0000000000000000  0.0000000000000000  0.0946004357797613
  0.5000000000000000  0.5000000000000000  0.5552183234881101
  0.5000000000000000  0.5000000000000000 -0.0038388323059759
  0.5000000000000000  0.0000000000000000  0.4868622624535694
  0.0000000000000000  0.5000000000000000  0.4871578105845268
 
  0.00000000E+00  0.00000000E+00  0.00000000E+00
  0.00000000E+00  0.00000000E+00  0.00000000E+00
  0.00000000E+00  0.00000000E+00  0.00000000E+00
  0.00000000E+00  0.00000000E+00  0.00000000E+00
  0.00000000E+00  0.00000000E+00  0.00000000E+00
