Generated using phonoLAMMPS             
   1.00000000000000     
     3.9640000000000000    0.0000000000000000    0.0000000000000000
     0.0000000000000000    3.9600000000000000    0.0000000000000000
     0.0000000000000000    0.0000000000000000    3.9094238314048604
   Pb   Ti   O 
     1     1     3
Direct
  0.0789001357182902  0.0000000000000000  0.0205187228800200
  0.5452402218763586  0.5000000000000000  0.5203627987735833
  0.4867349969358652  0.5000000000000000  0.0197970785786237
  0.4891554075929133  0.0000000000000000  0.5196538142025480
 -0.0000307621234895  0.5000000000000000  0.5196675855649279
 
  0.00000000E+00  0.00000000E+00  0.00000000E+00
  0.00000000E+00  0.00000000E+00  0.00000000E+00
  0.00000000E+00  0.00000000E+00  0.00000000E+00
  0.00000000E+00  0.00000000E+00  0.00000000E+00
  0.00000000E+00  0.00000000E+00  0.00000000E+00
