Generated using phonoLAMMPS             
   1.00000000000000     
     3.9640000000000000    0.0000000000000000    0.0000000000000000
     0.0000000000000000    3.9600000000000000    0.0000000000000000
     0.0000000000000000    0.0000000000000000    3.9805700694182127
   Pb   Ti   O 
     1     1     3
Direct
  0.0444989902083364  0.0000000000000000  0.0787613343627578
  0.5347929820709572  0.5000000000000000  0.5445932878171128
  0.5052830317491214  0.5000000000000000  0.9987432424836056
  0.5061326960867250  0.0000000000000000  0.4889911531606533
  0.0092922998847983  0.5000000000000000  0.4889109821755654
 
  0.00000000E+00  0.00000000E+00  0.00000000E+00
  0.00000000E+00  0.00000000E+00  0.00000000E+00
  0.00000000E+00  0.00000000E+00  0.00000000E+00
  0.00000000E+00  0.00000000E+00  0.00000000E+00
  0.00000000E+00  0.00000000E+00  0.00000000E+00
