Generated using phonoLAMMPS             
   1.00000000000000     
     3.9640000000000000    0.0000000000000000    0.0000000000000000
     0.0000000000000000    3.9480000000000000    0.0000000000000000
     0.0000000000000000    0.0000000000000000    3.9146151237818660
   Pb   Ti   O 
     1     1     3
Direct
  0.0781602789542123  0.0000000000000000  0.0237418490721119
  0.5452230047756346  0.5000000000000000  0.5223860564448339
  0.4873578118535515  0.5000000000000000  0.0184933915745326
  0.4890314001874400  0.0000000000000000  0.5177468941890286
  0.0002275042290875  0.5000000000000000  0.5176318087192016
 
  0.00000000E+00  0.00000000E+00  0.00000000E+00
  0.00000000E+00  0.00000000E+00  0.00000000E+00
  0.00000000E+00  0.00000000E+00  0.00000000E+00
  0.00000000E+00  0.00000000E+00  0.00000000E+00
  0.00000000E+00  0.00000000E+00  0.00000000E+00
