Generated using phonoLAMMPS             
   1.00000000000000     
     3.9640000000000000    0.0000000000000000    0.0000000000000000
     0.0000000000000000    3.9580000000000002    0.0000000000000000
     0.0000000000000000    0.0000000000000000    3.9068008304679394
   Pb   Ti   O 
     1     1     3
Direct
  0.0623050015065702  0.0571869618459878  0.0000000000000000
  0.5413357862361982  0.5395228357047616  0.5000000000000000
  0.4953680449849414  0.4980462134415444  0.0000000000000000
  0.4964979132985394  0.0061552824372116  0.5000000000000000
  0.0044932539737454  0.4990887065705004  0.5000000000000000
 
  0.00000000E+00  0.00000000E+00  0.00000000E+00
  0.00000000E+00  0.00000000E+00  0.00000000E+00
  0.00000000E+00  0.00000000E+00  0.00000000E+00
  0.00000000E+00  0.00000000E+00  0.00000000E+00
  0.00000000E+00  0.00000000E+00  0.00000000E+00
