Generated using phonoLAMMPS             
   1.00000000000000     
     3.9680000000000000    0.0000000000000000    0.0000000000000000
     0.0000000000000000    3.9540000000000002    0.0000000000000000
     0.0000000000000000    0.0000000000000000    3.9072796173975539
   Pb   Ti   O 
     1     1     3
Direct
  0.0804881343114677  0.0656122360888159  0.0049142889076607
  0.5564205181622893  0.5513574713118369  0.5042944431986229
  0.5067271421816212  0.5145746424272235  1.0032325815593508
  0.5080224124011913  0.0214868731798500  0.5029690684092202
  0.0168074273316277  0.5154344113804074  0.5029641252150427
 
  0.00000000E+00  0.00000000E+00  0.00000000E+00
  0.00000000E+00  0.00000000E+00  0.00000000E+00
  0.00000000E+00  0.00000000E+00  0.00000000E+00
  0.00000000E+00  0.00000000E+00  0.00000000E+00
  0.00000000E+00  0.00000000E+00  0.00000000E+00
