Generated using phonoLAMMPS             
   1.00000000000000     
     3.9720000000000000    0.0000000000000000    0.0000000000000000
     0.0000000000000000    3.9520000000000000    0.0000000000000000
     0.0000000000000000    0.0000000000000000    3.9071723301577155
   Pb   Ti   O 
     1     1     3
Direct
  0.0832081395060625  0.0622306512969294  0.0053950759092472
  0.5573088824791075  0.5500985284430011  0.5046128109915543
  0.5053053378743662  0.5163719670046656  1.0030509252900119
  0.5067432576137294  0.0225458431178124  0.5026602861082187
  0.0159000169148696  0.5172186445257013  0.5026554089908118
 
  0.00000000E+00  0.00000000E+00  0.00000000E+00
  0.00000000E+00  0.00000000E+00  0.00000000E+00
  0.00000000E+00  0.00000000E+00  0.00000000E+00
  0.00000000E+00  0.00000000E+00  0.00000000E+00
  0.00000000E+00  0.00000000E+00  0.00000000E+00
