Generated using phonoLAMMPS             
   1.00000000000000     
     3.9600000000000000    0.0000000000000000    0.0000000000000000
     0.0000000000000000    3.9520000000000000    0.0000000000000000
     0.0000000000000000    0.0000000000000000    4.0190917887610329
   Pb   Ti   O 
     1     1     3
Direct
  0.0000000000000000  0.0000000000000000  0.0936469153950376
  0.5000000000000000  0.5000000000000000  0.5527504521047286
  0.5000000000000000  0.5000000000000000 -0.0022608148404697
  0.5000000000000000  0.0000000000000000  0.4877328345254108
  0.0000000000000000  0.5000000000000000  0.4881306128152902
 
  0.00000000E+00  0.00000000E+00  0.00000000E+00
  0.00000000E+00  0.00000000E+00  0.00000000E+00
  0.00000000E+00  0.00000000E+00  0.00000000E+00
  0.00000000E+00  0.00000000E+00  0.00000000E+00
  0.00000000E+00  0.00000000E+00  0.00000000E+00
