Generated using phonoLAMMPS             
   1.00000000000000     
     3.9560000000000000    0.0000000000000000    0.0000000000000000
     0.0000000000000000    3.9319999999999999    0.0000000000000000
     0.0000000000000000    0.0000000000000000    4.0125077179519275
   Pb   Ti   O 
     1     1     3
Direct
  0.0518434039388949  0.0401400909375382  0.0660348871663780
  0.5451348189889772  0.5374978303014951  0.5313092945270192
  0.5231612455394100  0.5299052920045845  0.9800708971673633
  0.5226187713118819  0.0310221309599296  0.4700149125594545
  0.0257073946088948  0.5299002901845064  0.4709445158695428
 
  0.00000000E+00  0.00000000E+00  0.00000000E+00
  0.00000000E+00  0.00000000E+00  0.00000000E+00
  0.00000000E+00  0.00000000E+00  0.00000000E+00
  0.00000000E+00  0.00000000E+00  0.00000000E+00
  0.00000000E+00  0.00000000E+00  0.00000000E+00
