Generated using phonoLAMMPS             
   1.00000000000000     
     3.9720000000000000    0.0000000000000000    0.0000000000000000
     0.0000000000000000    3.9460000000000002    0.0000000000000000
     0.0000000000000000    0.0000000000000000    3.9095381932081628
   Pb   Ti   O 
     1     1     3
Direct
  0.0709433093831341  0.0457847898312622  0.0000000000000000
  0.5440383308225253  0.5350670843738863  0.5000000000000000
  0.4909915003604603  0.5042891965898192  0.0000000000000000
  0.4921832530069024  0.0099163207761872  0.5000000000000000
  0.0018436064269790  0.5049426084288436  0.5000000000000000
 
  0.00000000E+00  0.00000000E+00  0.00000000E+00
  0.00000000E+00  0.00000000E+00  0.00000000E+00
  0.00000000E+00  0.00000000E+00  0.00000000E+00
  0.00000000E+00  0.00000000E+00  0.00000000E+00
  0.00000000E+00  0.00000000E+00  0.00000000E+00
