Generated using phonoLAMMPS             
   1.00000000000000     
     3.9680000000000000    0.0000000000000000    0.0000000000000000
     0.0000000000000000    3.9440000000000000    0.0000000000000000
     0.0000000000000000    0.0000000000000000    3.9116588680353175
   Pb   Ti   O 
     1     1     3
Direct
  0.0700997527926124  0.0462096858580714  0.0000000000000000
  0.5436496314388679  0.5351527716505262  0.5000000000000000
  0.4915130632756733  0.5041167239367649  0.0000000000000000
  0.4924787009533334  0.0098624862765519  0.5000000000000000
  0.0022588515394744  0.5046583322780535  0.5000000000000000
 
  0.00000000E+00  0.00000000E+00  0.00000000E+00
  0.00000000E+00  0.00000000E+00  0.00000000E+00
  0.00000000E+00  0.00000000E+00  0.00000000E+00
  0.00000000E+00  0.00000000E+00  0.00000000E+00
  0.00000000E+00  0.00000000E+00  0.00000000E+00
