Generated using phonoLAMMPS             
   1.00000000000000     
     3.9620000000000002    0.0000000000000000    0.0000000000000000
     0.0000000000000000    3.9620000000000002    0.0000000000000000
     0.0000000000000000    0.0000000000000000    3.9670142131704296
   Pb   Ti   O 
     1     1     3
Direct
  0.0512683819539604  0.0000000000000000  0.0727215052931823
  0.5370989318784984  0.5000000000000000  0.5426710832426188
  0.5015082933142302  0.5000000000000000  1.0010799595418947
  0.5028377744612522  0.0000000000000000  0.4920276001605025
  0.0072866183916034  0.5000000000000000  0.4914998517617933
 
  0.00000000E+00  0.00000000E+00  0.00000000E+00
  0.00000000E+00  0.00000000E+00  0.00000000E+00
  0.00000000E+00  0.00000000E+00  0.00000000E+00
  0.00000000E+00  0.00000000E+00  0.00000000E+00
  0.00000000E+00  0.00000000E+00  0.00000000E+00
