Generated using phonoLAMMPS             
   1.00000000000000     
     3.9600000000000000    0.0000000000000000    0.0000000000000000
     0.0000000000000000    3.9340000000000002    0.0000000000000000
     0.0000000000000000    0.0000000000000000    3.9183939670797754
   Pb   Ti   O 
     1     1     3
Direct
  0.0702666745337932  0.0432450795634769  0.0000000000000000
  0.5434007179094305  0.5335876350457022  0.5000000000000000
  0.4916698457278659  0.5059211576067270  0.0000000000000000
  0.4920494483923078  0.0111197735438855  0.5000000000000000
  0.0026133134366045  0.5061263542401954  0.5000000000000000
 
  0.00000000E+00  0.00000000E+00  0.00000000E+00
  0.00000000E+00  0.00000000E+00  0.00000000E+00
  0.00000000E+00  0.00000000E+00  0.00000000E+00
  0.00000000E+00  0.00000000E+00  0.00000000E+00
  0.00000000E+00  0.00000000E+00  0.00000000E+00
