Generated using phonoLAMMPS             
   1.00000000000000     
     3.9540000000000002    0.0000000000000000    0.0000000000000000
     0.0000000000000000    3.9540000000000002    0.0000000000000000
     0.0000000000000000    0.0000000000000000    3.9117999761086675
   Pb   Ti   O 
     1     1     3
Direct
  0.0590854023423255  0.0590854023423255  0.0000000000000000
  0.5399524750469181  0.5399524750469181  0.5000000000000000
  0.4972633273871578  0.4972633273871578  0.0000000000000000
  0.4978776885625690  0.0058211066610318  0.5000000000000000
  0.0058211066610318  0.4978776885625690  0.5000000000000000
 
  0.00000000E+00  0.00000000E+00  0.00000000E+00
  0.00000000E+00  0.00000000E+00  0.00000000E+00
  0.00000000E+00  0.00000000E+00  0.00000000E+00
  0.00000000E+00  0.00000000E+00  0.00000000E+00
  0.00000000E+00  0.00000000E+00  0.00000000E+00
