Generated using phonoLAMMPS             
   1.00000000000000     
     3.9580000000000002    0.0000000000000000    0.0000000000000000
     0.0000000000000000    3.9560000000000000    0.0000000000000000
     0.0000000000000000    0.0000000000000000    4.0181112580825156
   Pb   Ti   O 
     1     1     3
Direct
  0.0000000000000000  0.0000000000000000  0.0937159151570321
  0.5000000000000000  0.5000000000000000  0.5526895064831745
  0.5000000000000000  0.5000000000000000 -0.0022393847297850
  0.5000000000000000  0.0000000000000000  0.4878698137346498
  0.0000000000000000  0.5000000000000000  0.4879641493549243
 
  0.00000000E+00  0.00000000E+00  0.00000000E+00
  0.00000000E+00  0.00000000E+00  0.00000000E+00
  0.00000000E+00  0.00000000E+00  0.00000000E+00
  0.00000000E+00  0.00000000E+00  0.00000000E+00
  0.00000000E+00  0.00000000E+00  0.00000000E+00
