Generated using phonoLAMMPS             
   1.00000000000000     
     3.9399999999999999    0.0000000000000000    0.0000000000000000
     0.0000000000000000    3.9380000000000002    0.0000000000000000
     0.0000000000000000    0.0000000000000000    4.0455420786927485
   Pb   Ti   O 
     1     1     3
Direct
  0.0000000000000000  0.0000000000000000  0.0944293827965127
  0.5000000000000000  0.5000000000000000  0.5547711855064575
  0.5000000000000000  0.5000000000000000 -0.0035280918621263
  0.5000000000000000  0.0000000000000000  0.4871182997178898
  0.0000000000000000  0.5000000000000000  0.4872092238412655
 
  0.00000000E+00  0.00000000E+00  0.00000000E+00
  0.00000000E+00  0.00000000E+00  0.00000000E+00
  0.00000000E+00  0.00000000E+00  0.00000000E+00
  0.00000000E+00  0.00000000E+00  0.00000000E+00
  0.00000000E+00  0.00000000E+00  0.00000000E+00
