Generated using phonoLAMMPS             
   1.00000000000000     
     3.9520000000000000    0.0000000000000000    0.0000000000000000
     0.0000000000000000    3.9440000000000000    0.0000000000000000
     0.0000000000000000    0.0000000000000000    4.0306088556328881
   Pb   Ti   O 
     1     1     3
Direct
  0.0225596215063308  0.0000000000000000  0.0898619268305356
  0.5217945511589467  0.5000000000000000  0.5496270786516814
  0.5184721588611617  0.5000000000000000 -0.0067724239623425
  0.5184199851065722  0.0000000000000000  0.4834627425421811
  0.0187536833670955  0.5000000000000000  0.4838206759379385
 
  0.00000000E+00  0.00000000E+00  0.00000000E+00
  0.00000000E+00  0.00000000E+00  0.00000000E+00
  0.00000000E+00  0.00000000E+00  0.00000000E+00
  0.00000000E+00  0.00000000E+00  0.00000000E+00
  0.00000000E+00  0.00000000E+00  0.00000000E+00
