Generated using phonoLAMMPS             
   1.00000000000000     
     3.9560000000000000    0.0000000000000000    0.0000000000000000
     0.0000000000000000    3.9540000000000002    0.0000000000000000
     0.0000000000000000    0.0000000000000000    3.9150101656586034
   Pb   Ti   O 
     1     1     3
Direct
  0.0732706142837386  0.0712030749542497  0.0148214980424509
  0.5537556537847769  0.5530387373771852  0.5098816854876858
  0.5107521071658713  0.5118444154526689  0.9995318326790469
  0.5114129820353706  0.0199254356804175  0.4970739530165943
  0.0192742771184007  0.5124539709236239  0.4970655380640434
 
  0.00000000E+00  0.00000000E+00  0.00000000E+00
  0.00000000E+00  0.00000000E+00  0.00000000E+00
  0.00000000E+00  0.00000000E+00  0.00000000E+00
  0.00000000E+00  0.00000000E+00  0.00000000E+00
  0.00000000E+00  0.00000000E+00  0.00000000E+00
