Generated using phonoLAMMPS             
   1.00000000000000     
     3.9560000000000000    0.0000000000000000    0.0000000000000000
     0.0000000000000000    3.9560000000000000    0.0000000000000000
     0.0000000000000000    0.0000000000000000    3.9103339474210097
   Pb   Ti   O 
     1     1     3
Direct
  0.0592888574427161  0.0592888574427161  0.0000000000000000
  0.5400889181458539  0.5400889181458539  0.5000000000000000
  0.4970978334123751  0.4970978334123751  0.0000000000000000
  0.4978512307503058  0.0056731602487508  0.5000000000000000
  0.0056731602487508  0.4978512307503058  0.5000000000000000
 
  0.00000000E+00  0.00000000E+00  0.00000000E+00
  0.00000000E+00  0.00000000E+00  0.00000000E+00
  0.00000000E+00  0.00000000E+00  0.00000000E+00
  0.00000000E+00  0.00000000E+00  0.00000000E+00
  0.00000000E+00  0.00000000E+00  0.00000000E+00
