Generated using phonoLAMMPS             
   1.00000000000000     
     3.9620000000000002    0.0000000000000000    0.0000000000000000
     0.0000000000000000    3.9380000000000002    0.0000000000000000
     0.0000000000000000    0.0000000000000000    3.9263042260313554
   Pb   Ti   O 
     1     1     3
Direct
  0.0804165283267984  0.0587500669134856  0.0220070219540270
  0.5559767426996084  0.5477460704525727  0.5140579548867780
  0.5073467006272910  0.5188186604481879  0.9967223481808952
  0.5076425831637108  0.0241676269350733  0.4928039266190452
  0.0170830795707400  0.5189832096388065  0.4927832556490352
 
  0.00000000E+00  0.00000000E+00  0.00000000E+00
  0.00000000E+00  0.00000000E+00  0.00000000E+00
  0.00000000E+00  0.00000000E+00  0.00000000E+00
  0.00000000E+00  0.00000000E+00  0.00000000E+00
  0.00000000E+00  0.00000000E+00  0.00000000E+00
