Generated using phonoLAMMPS             
   1.00000000000000     
     3.9660000000000002    0.0000000000000000    0.0000000000000000
     0.0000000000000000    3.9660000000000002    0.0000000000000000
     0.0000000000000000    0.0000000000000000    3.9030326333930709
   Pb   Ti   O 
     1     1     3
Direct
  0.0739432448909747  0.0739432448909747  0.0049031039789126
  0.5545129475818912  0.5545129475818912  0.5043006897101112
  0.5099760213791534  0.5099760213791534  1.0032482694445346
  0.5113869361758525  0.0186464843602430  0.5029612220781279
  0.0186464843602430  0.5113869361758525  0.5029612220781279
 
  0.00000000E+00  0.00000000E+00  0.00000000E+00
  0.00000000E+00  0.00000000E+00  0.00000000E+00
  0.00000000E+00  0.00000000E+00  0.00000000E+00
  0.00000000E+00  0.00000000E+00  0.00000000E+00
  0.00000000E+00  0.00000000E+00  0.00000000E+00
