Generated using phonoLAMMPS             
   1.00000000000000     
     3.9700000000000002    0.0000000000000000    0.0000000000000000
     0.0000000000000000    3.9580000000000002    0.0000000000000000
     0.0000000000000000    0.0000000000000000    3.9048623444348616
   Pb   Ti   O 
     1     1     3
Direct
  0.0660831589402175  0.0535057998031102  0.0000000000000000
  0.5426312559043746  0.5383685966350891  0.5000000000000000
  0.4932885698215500  0.4999988632414489  0.0000000000000000
  0.4947868813260489  0.0071735020606015  0.5000000000000000
  0.0032101340078253  0.5009532382597444  0.5000000000000000
 
  0.00000000E+00  0.00000000E+00  0.00000000E+00
  0.00000000E+00  0.00000000E+00  0.00000000E+00
  0.00000000E+00  0.00000000E+00  0.00000000E+00
  0.00000000E+00  0.00000000E+00  0.00000000E+00
  0.00000000E+00  0.00000000E+00  0.00000000E+00
