Generated using phonoLAMMPS             
   1.00000000000000     
     3.9560000000000000    0.0000000000000000    0.0000000000000000
     0.0000000000000000    3.9399999999999999    0.0000000000000000
     0.0000000000000000    0.0000000000000000    3.9690202742745773
   Pb   Ti   O 
     1     1     3
Direct
  0.0571248837517082  0.0000000000000000  0.0656349356732277
  0.5386147641794847  0.5000000000000000  0.5417951702756678
  0.4989728752738643  0.5000000000000000  0.0030706484908691
  0.4992273599967557  0.0000000000000000  0.4949592509780345
  0.0060601167982517  0.5000000000000000  0.4945399945822080
 
  0.00000000E+00  0.00000000E+00  0.00000000E+00
  0.00000000E+00  0.00000000E+00  0.00000000E+00
  0.00000000E+00  0.00000000E+00  0.00000000E+00
  0.00000000E+00  0.00000000E+00  0.00000000E+00
  0.00000000E+00  0.00000000E+00  0.00000000E+00
