Generated using phonoLAMMPS             
   1.00000000000000     
     3.9620000000000002    0.0000000000000000    0.0000000000000000
     0.0000000000000000    3.9540000000000002    0.0000000000000000
     0.0000000000000000    0.0000000000000000    3.9863638962283812
   Pb   Ti   O 
     1     1     3
Direct
  0.0436556230431218  0.0000000000000000  0.0792185501616944
  0.5343239899840195  0.5000000000000000  0.5451423161211419
  0.5058950336838064  0.5000000000000000  0.9983756664577175
  0.5064202421181679  0.0000000000000000  0.4885995326584111
  0.0097051111710861  0.5000000000000000  0.4886639346011962
 
  0.00000000E+00  0.00000000E+00  0.00000000E+00
  0.00000000E+00  0.00000000E+00  0.00000000E+00
  0.00000000E+00  0.00000000E+00  0.00000000E+00
  0.00000000E+00  0.00000000E+00  0.00000000E+00
  0.00000000E+00  0.00000000E+00  0.00000000E+00
