Generated using phonoLAMMPS             
   1.00000000000000     
     3.9359999999999999    0.0000000000000000    0.0000000000000000
     0.0000000000000000    3.9359999999999999    0.0000000000000000
     0.0000000000000000    0.0000000000000000    4.0502438196750381
   Pb   Ti   O 
     1     1     3
Direct
 -0.0000000000000000 -0.0000000000000000  0.0946254160433666
  0.5000000000000000  0.5000000000000000  0.5551115231021007
  0.5000000000000000  0.5000000000000000 -0.0037675862076056
  0.5000000000000000 -0.0000000000000000  0.4870153235310671
 -0.0000000000000000  0.5000000000000000  0.4870153235310671
 
  0.00000000E+00  0.00000000E+00  0.00000000E+00
  0.00000000E+00  0.00000000E+00  0.00000000E+00
  0.00000000E+00  0.00000000E+00  0.00000000E+00
  0.00000000E+00  0.00000000E+00  0.00000000E+00
  0.00000000E+00  0.00000000E+00  0.00000000E+00
