Generated using phonoLAMMPS             
   1.00000000000000     
     3.9560000000000000    0.0000000000000000    0.0000000000000000
     0.0000000000000000    3.9520000000000000    0.0000000000000000
     0.0000000000000000    0.0000000000000000    3.9118044329414436
   Pb   Ti   O 
     1     1     3
Direct
  0.0605356978772408  0.0575432787706874  0.0000000000000000
  0.5404855260155453  0.5393649750448020  0.5000000000000000
  0.4965133732035561  0.4980798258569000  0.0000000000000000
  0.4971321381112633  0.0063210443343773  0.5000000000000000
  0.0053332647923963  0.4986908759932269  0.5000000000000000
 
  0.00000000E+00  0.00000000E+00  0.00000000E+00
  0.00000000E+00  0.00000000E+00  0.00000000E+00
  0.00000000E+00  0.00000000E+00  0.00000000E+00
  0.00000000E+00  0.00000000E+00  0.00000000E+00
  0.00000000E+00  0.00000000E+00  0.00000000E+00
