Generated using phonoLAMMPS             
   1.00000000000000     
     3.9700000000000002    0.0000000000000000    0.0000000000000000
     0.0000000000000000    3.9580000000000002    0.0000000000000000
     0.0000000000000000    0.0000000000000000    3.9049776210725269
   Pb   Ti   O 
     1     1     3
Direct
  0.0797444578065198  0.0671907175052492  0.0052706205659868
  0.5563109861541895  0.5520646274008453  0.5045157195486940
  0.5070215924052633  0.5136466691912001  1.0031021321888756
  0.5084792937508028  0.0208686374974441  0.5027462075151670
  0.0169093042712768  0.5146949827933280  0.5027398274711552
 
  0.00000000E+00  0.00000000E+00  0.00000000E+00
  0.00000000E+00  0.00000000E+00  0.00000000E+00
  0.00000000E+00  0.00000000E+00  0.00000000E+00
  0.00000000E+00  0.00000000E+00  0.00000000E+00
  0.00000000E+00  0.00000000E+00  0.00000000E+00
