Generated using phonoLAMMPS             
   1.00000000000000     
     3.9580000000000002    0.0000000000000000    0.0000000000000000
     0.0000000000000000    3.9380000000000002    0.0000000000000000
     0.0000000000000000    0.0000000000000000    3.9714314350663957
   Pb   Ti   O 
     1     1     3
Direct
  0.0561838472993810  0.0000000000000000  0.0668670673048841
  0.5384618844043902  0.5000000000000000  0.5422185387413659
  0.4994885486064358  0.5000000000000000  0.0026406058322071
  0.4996334569001786  0.0000000000000000  0.4942265763033388
  0.0062322627896082  0.5000000000000000  0.4940472118181940
 
  0.00000000E+00  0.00000000E+00  0.00000000E+00
  0.00000000E+00  0.00000000E+00  0.00000000E+00
  0.00000000E+00  0.00000000E+00  0.00000000E+00
  0.00000000E+00  0.00000000E+00  0.00000000E+00
  0.00000000E+00  0.00000000E+00  0.00000000E+00
