Generated using phonoLAMMPS             
   1.00000000000000     
     3.9700000000000002    0.0000000000000000    0.0000000000000000
     0.0000000000000000    3.9640000000000000    0.0000000000000000
     0.0000000000000000    0.0000000000000000    3.9769368331980073
   Pb   Ti   O 
     1     1     3
Direct
  0.0434046748428126  0.0000000000000000  0.0797883906135839
  0.5348793533484910  0.5000000000000000  0.5443783206171144
  0.5056986248223689  0.5000000000000000  0.9985960975956922
  0.5067242648024536  0.0000000000000000  0.4885279626165446
  0.0092930821837229  0.5000000000000000  0.4887092285569856
 
  0.00000000E+00  0.00000000E+00  0.00000000E+00
  0.00000000E+00  0.00000000E+00  0.00000000E+00
  0.00000000E+00  0.00000000E+00  0.00000000E+00
  0.00000000E+00  0.00000000E+00  0.00000000E+00
  0.00000000E+00  0.00000000E+00  0.00000000E+00
