Generated using phonoLAMMPS             
   1.00000000000000     
     3.9380000000000002    0.0000000000000000    0.0000000000000000
     0.0000000000000000    3.9380000000000002    0.0000000000000000
     0.0000000000000000    0.0000000000000000    4.0475605984251626
   Pb   Ti   O 
     1     1     3
Direct
  0.0199359840942728  0.0000000000000000  0.0906028829715282
  0.5199036959209652  0.5000000000000000  0.5509056813894756
  0.5200075074696217  0.5000000000000000 -0.0076739961690123
  0.5201016530327583  0.0000000000000000  0.4830837525310093
  0.0200511594824044  0.5000000000000000  0.4830816792769905
 
  0.00000000E+00  0.00000000E+00  0.00000000E+00
  0.00000000E+00  0.00000000E+00  0.00000000E+00
  0.00000000E+00  0.00000000E+00  0.00000000E+00
  0.00000000E+00  0.00000000E+00  0.00000000E+00
  0.00000000E+00  0.00000000E+00  0.00000000E+00
