Generated using phonoLAMMPS             
   1.00000000000000     
     3.9480000000000000    0.0000000000000000    0.0000000000000000
     0.0000000000000000    3.9340000000000002    0.0000000000000000
     0.0000000000000000    0.0000000000000000    4.0424721324631134
   Pb   Ti   O 
     1     1     3
Direct
  0.0205750787726164  0.0000000000000000  0.0903774866064459
  0.5204479502135009  0.5000000000000000  0.5505304679003068
  0.5196735276852172  0.5000000000000000 -0.0074019187459250
  0.5195902786104455  0.0000000000000000  0.4828573532867443
  0.0197131647180076  0.5000000000000000  0.4836366109527820
 
  0.00000000E+00  0.00000000E+00  0.00000000E+00
  0.00000000E+00  0.00000000E+00  0.00000000E+00
  0.00000000E+00  0.00000000E+00  0.00000000E+00
  0.00000000E+00  0.00000000E+00  0.00000000E+00
  0.00000000E+00  0.00000000E+00  0.00000000E+00
