Generated using phonoLAMMPS             
   1.00000000000000     
     3.9680000000000000    0.0000000000000000    0.0000000000000000
     0.0000000000000000    3.9460000000000002    0.0000000000000000
     0.0000000000000000    0.0000000000000000    3.9110800680789235
   Pb   Ti   O 
     1     1     3
Direct
  0.0834523704504379  0.0605672520701781  0.0066989002875763
  0.5572224601028255  0.5491986000078581  0.5053912941653939
  0.5053506108765469  0.5174228905459539  1.0025417781458668
  0.5064023473854747  0.0232781938960115  0.5018786052121572
  0.0160378455731529  0.5179986978677940  0.5018639294787426
 
  0.00000000E+00  0.00000000E+00  0.00000000E+00
  0.00000000E+00  0.00000000E+00  0.00000000E+00
  0.00000000E+00  0.00000000E+00  0.00000000E+00
  0.00000000E+00  0.00000000E+00  0.00000000E+00
  0.00000000E+00  0.00000000E+00  0.00000000E+00
