Generated using phonoLAMMPS             
   1.00000000000000     
     3.9660000000000002    0.0000000000000000    0.0000000000000000
     0.0000000000000000    3.9420000000000002    0.0000000000000000
     0.0000000000000000    0.0000000000000000    3.9145744686894175
   Pb   Ti   O 
     1     1     3
Direct
  0.0835973597226468  0.0590160478090286  0.0103041449102322
  0.5571688564671209  0.5483818165434233  0.5075754089161862
  0.5053997952127356  0.5183809321175659  1.0011405918966514
  0.5062049495042485  0.0238991439430798  0.4996914777892194
  0.0160946734814196  0.5187876939750758  0.4996628837775695
 
  0.00000000E+00  0.00000000E+00  0.00000000E+00
  0.00000000E+00  0.00000000E+00  0.00000000E+00
  0.00000000E+00  0.00000000E+00  0.00000000E+00
  0.00000000E+00  0.00000000E+00  0.00000000E+00
  0.00000000E+00  0.00000000E+00  0.00000000E+00
