Generated using phonoLAMMPS             
   1.00000000000000     
     3.9480000000000000    0.0000000000000000    0.0000000000000000
     0.0000000000000000    3.9460000000000002    0.0000000000000000
     0.0000000000000000    0.0000000000000000    4.0325036505742142
   Pb   Ti   O 
     1     1     3
Direct
  0.0211856150698754  0.0000000000000000  0.0899806790093929
  0.5208228123963065  0.5000000000000000  0.5497720627481245
  0.5192957607696570  0.5000000000000000 -0.0068887593566338
  0.5192575089537603  0.0000000000000000  0.4835172085917621
  0.0194383028103669  0.5000000000000000  0.4836188090073730
 
  0.00000000E+00  0.00000000E+00  0.00000000E+00
  0.00000000E+00  0.00000000E+00  0.00000000E+00
  0.00000000E+00  0.00000000E+00  0.00000000E+00
  0.00000000E+00  0.00000000E+00  0.00000000E+00
  0.00000000E+00  0.00000000E+00  0.00000000E+00
