Generated using phonoLAMMPS             
   1.00000000000000     
     3.9720000000000000    0.0000000000000000    0.0000000000000000
     0.0000000000000000    3.9560000000000000    0.0000000000000000
     0.0000000000000000    0.0000000000000000    3.9051736131475461
   Pb   Ti   O 
     1     1     3
Direct
  0.0815542571545766  0.0649699042781752  0.0049480386498583
  0.5568788117456908  0.5512300470951010  0.5043275155365945
  0.5060876568988282  0.5148410749285488  1.0032256847293146
  0.5076098949479427  0.0215882338424703  0.5029398962556492
  0.0163350136410806  0.5158363742438191  0.5029333721184206
 
  0.00000000E+00  0.00000000E+00  0.00000000E+00
  0.00000000E+00  0.00000000E+00  0.00000000E+00
  0.00000000E+00  0.00000000E+00  0.00000000E+00
  0.00000000E+00  0.00000000E+00  0.00000000E+00
  0.00000000E+00  0.00000000E+00  0.00000000E+00
