Generated using phonoLAMMPS             
   1.00000000000000     
     3.9540000000000002    0.0000000000000000    0.0000000000000000
     0.0000000000000000    3.9340000000000002    0.0000000000000000
     0.0000000000000000    0.0000000000000000    3.9746900490332853
   Pb   Ti   O 
     1     1     3
Direct
  0.0647026138978633  0.0528001671780868  0.0502210267549363
  0.5502138142221552  0.5441870778735319  0.5260383569524582
  0.5160746990147664  0.5226028807328960  0.9863485201182346
  0.5157767656327488  0.0262793829293530  0.4777027560727875
  0.0216977416206232  0.5225961256741772  0.4780638473913355
 
  0.00000000E+00  0.00000000E+00  0.00000000E+00
  0.00000000E+00  0.00000000E+00  0.00000000E+00
  0.00000000E+00  0.00000000E+00  0.00000000E+00
  0.00000000E+00  0.00000000E+00  0.00000000E+00
  0.00000000E+00  0.00000000E+00  0.00000000E+00
