Generated using phonoLAMMPS             
   1.00000000000000     
     3.9540000000000002    0.0000000000000000    0.0000000000000000
     0.0000000000000000    3.9480000000000000    0.0000000000000000
     0.0000000000000000    0.0000000000000000    3.9497107956654882
   Pb   Ti   O 
     1     1     3
Direct
  0.0645859201837429  0.0000000000000000  0.0559863155670610
  0.5407349456099663  0.5000000000000000  0.5382072149621049
  0.4949185900934574  0.5000000000000000  0.0066196771258162
  0.4956783313029363  0.0000000000000000  0.5000977147072508
  0.0040822128098766  0.5000000000000000  0.4990890776378102
 
  0.00000000E+00  0.00000000E+00  0.00000000E+00
  0.00000000E+00  0.00000000E+00  0.00000000E+00
  0.00000000E+00  0.00000000E+00  0.00000000E+00
  0.00000000E+00  0.00000000E+00  0.00000000E+00
  0.00000000E+00  0.00000000E+00  0.00000000E+00
