Generated using phonoLAMMPS             
   1.00000000000000     
     3.9660000000000002    0.0000000000000000    0.0000000000000000
     0.0000000000000000    3.9500000000000002    0.0000000000000000
     0.0000000000000000    0.0000000000000000    3.9099381903610109
   Pb   Ti   O 
     1     1     3
Direct
  0.0810009015916855  0.0641030805085621  0.0069997488207747
  0.5564791037470603  0.5506588950359805  0.5055232436808372
  0.5065606911351012  0.5154751852384600  1.0024445516892608
  0.5076552664427112  0.0220842852137445  0.5017126794826056
  0.0167696714715867  0.5161441883914050  0.5016942836163600
 
  0.00000000E+00  0.00000000E+00  0.00000000E+00
  0.00000000E+00  0.00000000E+00  0.00000000E+00
  0.00000000E+00  0.00000000E+00  0.00000000E+00
  0.00000000E+00  0.00000000E+00  0.00000000E+00
  0.00000000E+00  0.00000000E+00  0.00000000E+00
