Generated using phonoLAMMPS             
   1.00000000000000     
     3.9620000000000002    0.0000000000000000    0.0000000000000000
     0.0000000000000000    3.9600000000000000    0.0000000000000000
     0.0000000000000000    0.0000000000000000    3.9067872113738740
   Pb   Ti   O 
     1     1     3
Direct
  0.0745156794809671  0.0723624089062780  0.0052535311876478
  0.5544965371428867  0.5537737108688393  0.5044663519192192
  0.5098316401801776  0.5109676847865592  1.0031189513927752
  0.5109463816533786  0.0193484533149189  0.5027682610708959
  0.0186753959308282  0.5120133765113269  0.5027674117192513
 
  0.00000000E+00  0.00000000E+00  0.00000000E+00
  0.00000000E+00  0.00000000E+00  0.00000000E+00
  0.00000000E+00  0.00000000E+00  0.00000000E+00
  0.00000000E+00  0.00000000E+00  0.00000000E+00
  0.00000000E+00  0.00000000E+00  0.00000000E+00
