Generated using phonoLAMMPS             
   1.00000000000000     
     3.9620000000000002    0.0000000000000000    0.0000000000000000
     0.0000000000000000    3.9359999999999999    0.0000000000000000
     0.0000000000000000    0.0000000000000000    4.0293449714775873
   Pb   Ti   O 
     1     1     3
Direct
  0.0000000000000000  0.0000000000000000  0.0938673606074320
  0.5000000000000000  0.5000000000000000  0.5535514674223165
  0.5000000000000000  0.5000000000000000 -0.0027145829218899
  0.5000000000000000  0.0000000000000000  0.4869699811142632
  0.0000000000000000  0.5000000000000000  0.4883257737778731
 
  0.00000000E+00  0.00000000E+00  0.00000000E+00
  0.00000000E+00  0.00000000E+00  0.00000000E+00
  0.00000000E+00  0.00000000E+00  0.00000000E+00
  0.00000000E+00  0.00000000E+00  0.00000000E+00
  0.00000000E+00  0.00000000E+00  0.00000000E+00
