Generated using phonoLAMMPS             
   1.00000000000000     
     3.9580000000000002    0.0000000000000000    0.0000000000000000
     0.0000000000000000    3.9580000000000002    0.0000000000000000
     0.0000000000000000    0.0000000000000000    3.9089881540766980
   Pb   Ti   O 
     1     1     3
Direct
  0.0595214117313303  0.0595214117313303  0.0000000000000000
  0.5402517255995459  0.5402517255995459  0.5000000000000000
  0.4969320025124546  0.4969320025124546  0.0000000000000000
  0.4977704274175571  0.0055244327391144  0.5000000000000000
  0.0055244327391144  0.4977704274175571  0.5000000000000000
 
  0.00000000E+00  0.00000000E+00  0.00000000E+00
  0.00000000E+00  0.00000000E+00  0.00000000E+00
  0.00000000E+00  0.00000000E+00  0.00000000E+00
  0.00000000E+00  0.00000000E+00  0.00000000E+00
  0.00000000E+00  0.00000000E+00  0.00000000E+00
